 vasp.6.5.1 10Mar25 (build May 15 2026 23:14:27) complex                         
 executed on              LinuxNV date 2026.06.02  10:06:53
 running    1 mpi-ranks, on    1 nodes
 distrk:  each k-point on    1 cores,    1 groups
 distr:  one band on NCORE=   1 cores,    1 groups
 Offloading initialized ...    1 GPUs detected


--------------------------------------------------------------------------------------------------------


 INCAR:
   SYSTEM = SCF
   ENCUT = 520
   PREC = Accurate
   EDIFF = 1E-6
   NELM = 120
   ALGO = Normal
   ISMEAR = 1
   SIGMA = 0.10
   LASPH = .TRUE.
   LMAXMIX = 4
   ADDGRID = .TRUE.
   LREAL = Auto
   ISYM = 2
   IBRION = -1
   NSW = 0
   LWAVE = .FALSE.
   LCHARG = .TRUE.
   ISPIN = 2
   MAGMOM = 2*2.5

 POTCAR:    PAW_PBE Fe_pv 02Aug2007               
 POTCAR:    PAW_PBE Fe_pv 02Aug2007               
   SHA256 =  5d22e414b1f82158bf2c7ecb8b97b28fd0923e48cadc1c3bf74d524558f5dd32 Fe_pv/POTCAR          
   COPYR  = (c) Copyright 02Aug2007 Georg Kresse                                                    
   COPYR  = This file is part of the software VASP. Any use, copying, and all other rights are regul
   COPYR  = If you do not have a valid VASP license, you may not use, copy or distribute this file. 
   VRHFIN =Fe:  3pd7s1                                                                              
   LEXCH  = PE                                                                                      
   EATOM  =  2457.4239 eV,  180.6156 Ry                                                             
                                                                                                    
   TITEL  = PAW_PBE Fe_pv 02Aug2007                                                                 
   LULTRA =        F    use ultrasoft PP ?                                                          
   IUNSCR =        1    unscreen: 0-lin 1-nonlin 2-no                                               
   RPACOR =    1.750    partial core radius                                                         
   POMASS =   55.847; ZVAL   =   14.000    mass and valenz                                          
   RCORE  =    2.200    outmost cutoff radius                                                       
   RWIGS  =    2.200; RWIGS  =    1.164    wigner-seitz radius (au A)                               
   ENMAX  =  293.238; ENMIN  =  219.928 eV                                                          
   ICORE  =        3    local potential                                                             
   LCOR   =        T    correct aug charges                                                         
   LPAW   =        T    paw PP                                                                      
   EAUG   =  578.342                                                                                
   DEXC   =    0.000                                                                                
   RMAX   =    2.249    core radius for proj-oper                                                   
   RAUG   =    1.300    factor for augmentation sphere                                              
   RDEP   =    2.296    radius for radial grids                                                     
   RDEPT  =    1.766    core radius for aug-charge                                                  
                                                                                                    
   Atomic configuration                                                                             
    8 entries                                                                                       
     n  l   j            E        occ.                                                              
     1  0  0.50     -6993.8440   2.0000                                                             
     2  0  0.50      -814.6047   2.0000                                                             
     2  1  1.50      -693.3689   6.0000                                                             
     3  0  0.50       -89.4732   2.0000                                                             
     3  1  1.50       -55.6373   6.0000                                                             
     3  2  2.50        -3.8151   7.0000                                                             
     4  0  0.50        -4.2551   1.0000                                                             
     4  3  2.50        -1.3606   0.0000                                                             
   Description                                                                                      
     l       E           TYP  RCUT    TYP  RCUT                                                     
     1    -55.6372668     23  2.000                                                                 
     1     -5.4423304     23  2.000                                                                 
     2     -3.8151096     23  2.200                                                                 
     2     -5.1756922     23  2.200                                                                 
     0     -4.2550951     23  2.200                                                                 
     0     27.2116520     23  2.200                                                                 
     3     -1.3605826     23  2.200                                                                 
  local pseudopotential read in
  partial core-charges read in
  partial kinetic energy density read in
  atomic valenz-charges read in
  non local Contribution for L=            1  read in
    real space projection operators read in
  non local Contribution for L=            1  read in
    real space projection operators read in
  non local Contribution for L=            2  read in
    real space projection operators read in
  non local Contribution for L=            2  read in
    real space projection operators read in
  non local Contribution for L=            0  read in
    real space projection operators read in
  non local Contribution for L=            0  read in
    real space projection operators read in
    PAW grid and wavefunctions read in
 
   number of l-projection  operators is LMAX  =            6
   number of lm-projection operators is LMMAX =           18
 
 -----------------------------------------------------------------------------
|                                                                             |
|               ----> ADVICE to this user running VASP <----                  |
|                                                                             |
|     You have a (more or less) 'small supercell' and for smaller cells       |
|     it is recommended to use the reciprocal-space projection scheme!        |
|     The real-space optimization is not efficient for small cells and it     |
|     is also less accurate ...                                               |
|     Therefore, set LREAL=.FALSE. in the INCAR file.                         |
|                                                                             |
 -----------------------------------------------------------------------------

 Optimization of the real space projectors (new method)

 maximal supplied QI-value         = 17.01
 optimisation between [QCUT,QGAM] = [ 11.57, 23.30] = [ 37.45,152.03] Ry 
 Optimized for a Real-space Cutoff    1.45 Angstroem

   l    n(q)    QCUT    max X(q) W(low)/X(q) W(high)/X(q)  e(spline) 
   1     10    11.565     4.267    0.91E-04    0.15E-03    0.13E-06
   1     10    11.565     5.750    0.14E-03    0.22E-03    0.20E-06
   2      9    11.565    53.656    0.13E-03    0.57E-04    0.16E-06
   2      9    11.565    49.521    0.13E-03    0.59E-04    0.16E-06
   0     10    11.565    31.246    0.61E-04    0.74E-05    0.89E-07
   0     10    11.565    12.201    0.44E-04    0.68E-05    0.74E-07
  PAW_PBE Fe_pv 02Aug2007               :
 energy of atom  1       EATOM=-2457.4239
 kinetic energy error for atom=    0.0062 (will be added to EATOM!!)
 
 
 POSCAR: bcc Fe volume scan, a = 2.866 A
  positions in direct lattice
  No initial velocities read in


 exchange-correlation table for PE
   RHO(1)=    0.500       N(1)  =     2000
   RHO(2)=  100.500       N(2)  =     4000
 


--------------------------------------------------------------------------------------------------------


 ion  position               nearest neighbor table
   1  0.000  0.000  0.000-   2 2.48   2 2.48   2 2.48   2 2.48   2 2.48   2 2.48   2 2.48   2 2.48

   2  0.500  0.500  0.500-   1 2.48   1 2.48   1 2.48   1 2.48   1 2.48   1 2.48   1 2.48   1 2.48

 
  LATTYP: Found a simple cubic cell.
 ALAT       =     2.8660000000
  
  Lattice vectors:
  
 A1 = (   2.8660000000,   0.0000000000,   0.0000000000)
 A2 = (   0.0000000000,   2.8660000000,   0.0000000000)
 A3 = (   0.0000000000,   0.0000000000,   2.8660000000)


Analysis of symmetry for initial positions (statically):
=====================================================================
 Subroutine PRICEL returns following result:
 
  LATTYP: Found a body centered cubic cell.
 ALAT       =     2.8660000000
  
  Lattice vectors:
  
 A1 = (   1.4330000000,   1.4330000000,  -1.4330000000)
 A2 = (  -1.4330000000,   1.4330000000,   1.4330000000)
 A3 = (   1.4330000000,  -1.4330000000,   1.4330000000)
 
   2 primitive cells build up your supercell.
 

 Routine SETGRP: Setting up the symmetry group for a 
 simple cubic supercell.


 Subroutine GETGRP returns: Found 48 space group operations
 (whereof 48 operations were pure point group operations)
 out of a pool of 48 trial point group operations.


The static configuration has the point symmetry O_h .


Analysis of symmetry for dynamics (positions and initial velocities):
=====================================================================
 Subroutine PRICEL returns following result:
 
  LATTYP: Found a body centered cubic cell.
 ALAT       =     2.8660000000
  
  Lattice vectors:
  
 A1 = (   1.4330000000,   1.4330000000,  -1.4330000000)
 A2 = (  -1.4330000000,   1.4330000000,   1.4330000000)
 A3 = (   1.4330000000,  -1.4330000000,   1.4330000000)
 
   2 primitive cells build up your supercell.
 

 Routine SETGRP: Setting up the symmetry group for a 
 simple cubic supercell.


 Subroutine GETGRP returns: Found 48 space group operations
 (whereof 48 operations were pure point group operations)
 out of a pool of 48 trial point group operations.


The dynamic configuration has the point symmetry O_h .


Analysis of structural, dynamic, and magnetic symmetry:
=====================================================================
 Subroutine PRICEL returns following result:
 
  LATTYP: Found a body centered cubic cell.
 ALAT       =     2.8660000000
  
  Lattice vectors:
  
 A1 = (   1.4330000000,   1.4330000000,  -1.4330000000)
 A2 = (  -1.4330000000,   1.4330000000,   1.4330000000)
 A3 = (   1.4330000000,  -1.4330000000,   1.4330000000)
 
   2 primitive cells build up your supercell.
 

 Routine SETGRP: Setting up the symmetry group for a 
 simple cubic supercell.


 Subroutine GETGRP returns: Found 48 space group operations
 (whereof 48 operations were pure point group operations)
 out of a pool of 48 trial point group operations.


The overall configuration has the point symmetry O_h .


 Subroutine INISYM returns: Found 48 space group operations
 (whereof 48 operations are pure point group operations),
 and found     2 'primitive' translations


----------------------------------------------------------------------------------------

                                     Primitive cell                                     

  volume of cell :      11.7706

  direct lattice vectors                    reciprocal lattice vectors
     1.433000000  1.433000000 -1.433000000     0.348918353  0.348918353 -0.000000000
    -1.433000000  1.433000000  1.433000000    -0.000000000  0.348918353  0.348918353
     1.433000000 -1.433000000  1.433000000     0.348918353 -0.000000000  0.348918353

  length of vectors
     2.482028807  2.482028807  2.482028807     0.493445067  0.493445067  0.493445067

  position of ions in fractional coordinates (direct lattice)
     0.000000000  0.000000000  0.000000000

  ion indices of the primitive-cell ions
   primitive index   ion index
                 1           1

----------------------------------------------------------------------------------------

 
 
 KPOINTS: Automatic mesh                          

Automatic generation of k-mesh.
 Grid dimensions read from file:
 generate k-points for:   16   16   16

 Generating k-lattice:

  Cartesian coordinates                     Fractional coordinates (reciprocal lattice)
     0.021807397  0.000000000  0.000000000     0.062500000  0.000000000  0.000000000
     0.000000000  0.021807397  0.000000000     0.000000000  0.062500000  0.000000000
     0.000000000  0.000000000  0.021807397     0.000000000  0.000000000  0.062500000

  Length of vectors
     0.021807397  0.021807397  0.021807397

  Shift w.r.t. Gamma in fractional coordinates (k-lattice)
     0.500000000  0.500000000  0.500000000

 
 Subroutine IBZKPT returns following result:
 ===========================================
 
 Found    120 irreducible k-points:
 
 Following reciprocal coordinates:
            Coordinates               Weight
  0.031250  0.031250  0.031250      8.000000
  0.093750  0.031250  0.031250     24.000000
  0.156250  0.031250  0.031250     24.000000
  0.218750  0.031250  0.031250     24.000000
  0.281250  0.031250  0.031250     24.000000
  0.343750  0.031250  0.031250     24.000000
  0.406250  0.031250  0.031250     24.000000
  0.468750  0.031250  0.031250     24.000000
  0.093750  0.093750  0.031250     24.000000
  0.156250  0.093750  0.031250     48.000000
  0.218750  0.093750  0.031250     48.000000
  0.281250  0.093750  0.031250     48.000000
  0.343750  0.093750  0.031250     48.000000
  0.406250  0.093750  0.031250     48.000000
  0.468750  0.093750  0.031250     48.000000
  0.156250  0.156250  0.031250     24.000000
  0.218750  0.156250  0.031250     48.000000
  0.281250  0.156250  0.031250     48.000000
  0.343750  0.156250  0.031250     48.000000
  0.406250  0.156250  0.031250     48.000000
  0.468750  0.156250  0.031250     48.000000
  0.218750  0.218750  0.031250     24.000000
  0.281250  0.218750  0.031250     48.000000
  0.343750  0.218750  0.031250     48.000000
  0.406250  0.218750  0.031250     48.000000
  0.468750  0.218750  0.031250     48.000000
  0.281250  0.281250  0.031250     24.000000
  0.343750  0.281250  0.031250     48.000000
  0.406250  0.281250  0.031250     48.000000
  0.468750  0.281250  0.031250     48.000000
  0.343750  0.343750  0.031250     24.000000
  0.406250  0.343750  0.031250     48.000000
  0.468750  0.343750  0.031250     48.000000
  0.406250  0.406250  0.031250     24.000000
  0.468750  0.406250  0.031250     48.000000
  0.468750  0.468750  0.031250     24.000000
  0.093750  0.093750  0.093750      8.000000
  0.156250  0.093750  0.093750     24.000000
  0.218750  0.093750  0.093750     24.000000
  0.281250  0.093750  0.093750     24.000000
  0.343750  0.093750  0.093750     24.000000
  0.406250  0.093750  0.093750     24.000000
  0.468750  0.093750  0.093750     24.000000
  0.156250  0.156250  0.093750     24.000000
  0.218750  0.156250  0.093750     48.000000
  0.281250  0.156250  0.093750     48.000000
  0.343750  0.156250  0.093750     48.000000
  0.406250  0.156250  0.093750     48.000000
  0.468750  0.156250  0.093750     48.000000
  0.218750  0.218750  0.093750     24.000000
  0.281250  0.218750  0.093750     48.000000
  0.343750  0.218750  0.093750     48.000000
  0.406250  0.218750  0.093750     48.000000
  0.468750  0.218750  0.093750     48.000000
  0.281250  0.281250  0.093750     24.000000
  0.343750  0.281250  0.093750     48.000000
  0.406250  0.281250  0.093750     48.000000
  0.468750  0.281250  0.093750     48.000000
  0.343750  0.343750  0.093750     24.000000
  0.406250  0.343750  0.093750     48.000000
  0.468750  0.343750  0.093750     48.000000
  0.406250  0.406250  0.093750     24.000000
  0.468750  0.406250  0.093750     48.000000
  0.468750  0.468750  0.093750     24.000000
  0.156250  0.156250  0.156250      8.000000
  0.218750  0.156250  0.156250     24.000000
  0.281250  0.156250  0.156250     24.000000
  0.343750  0.156250  0.156250     24.000000
  0.406250  0.156250  0.156250     24.000000
  0.468750  0.156250  0.156250     24.000000
  0.218750  0.218750  0.156250     24.000000
  0.281250  0.218750  0.156250     48.000000
  0.343750  0.218750  0.156250     48.000000
  0.406250  0.218750  0.156250     48.000000
  0.468750  0.218750  0.156250     48.000000
  0.281250  0.281250  0.156250     24.000000
  0.343750  0.281250  0.156250     48.000000
  0.406250  0.281250  0.156250     48.000000
  0.468750  0.281250  0.156250     48.000000
  0.343750  0.343750  0.156250     24.000000
  0.406250  0.343750  0.156250     48.000000
  0.468750  0.343750  0.156250     48.000000
  0.406250  0.406250  0.156250     24.000000
  0.468750  0.406250  0.156250     48.000000
  0.468750  0.468750  0.156250     24.000000
  0.218750  0.218750  0.218750      8.000000
  0.281250  0.218750  0.218750     24.000000
  0.343750  0.218750  0.218750     24.000000
  0.406250  0.218750  0.218750     24.000000
  0.468750  0.218750  0.218750     24.000000
  0.281250  0.281250  0.218750     24.000000
  0.343750  0.281250  0.218750     48.000000
  0.406250  0.281250  0.218750     48.000000
  0.468750  0.281250  0.218750     48.000000
  0.343750  0.343750  0.218750     24.000000
  0.406250  0.343750  0.218750     48.000000
  0.468750  0.343750  0.218750     48.000000
  0.406250  0.406250  0.218750     24.000000
  0.468750  0.406250  0.218750     48.000000
  0.468750  0.468750  0.218750     24.000000
  0.281250  0.281250  0.281250      8.000000
  0.343750  0.281250  0.281250     24.000000
  0.406250  0.281250  0.281250     24.000000
  0.468750  0.281250  0.281250     24.000000
  0.343750  0.343750  0.281250     24.000000
  0.406250  0.343750  0.281250     48.000000
  0.468750  0.343750  0.281250     48.000000
  0.406250  0.406250  0.281250     24.000000
  0.468750  0.406250  0.281250     48.000000
  0.468750  0.468750  0.281250     24.000000
  0.343750  0.343750  0.343750      8.000000
  0.406250  0.343750  0.343750     24.000000
  0.468750  0.343750  0.343750     24.000000
  0.406250  0.406250  0.343750     24.000000
  0.468750  0.406250  0.343750     48.000000
  0.468750  0.468750  0.343750     24.000000
  0.406250  0.406250  0.406250      8.000000
  0.468750  0.406250  0.406250     24.000000
  0.468750  0.468750  0.406250     24.000000
  0.468750  0.468750  0.468750      8.000000
 
 Following cartesian coordinates:
            Coordinates               Weight
  0.010904  0.010904  0.010904      8.000000
  0.032711  0.010904  0.010904     24.000000
  0.054518  0.010904  0.010904     24.000000
  0.076326  0.010904  0.010904     24.000000
  0.098133  0.010904  0.010904     24.000000
  0.119941  0.010904  0.010904     24.000000
  0.141748  0.010904  0.010904     24.000000
  0.163555  0.010904  0.010904     24.000000
  0.032711  0.032711  0.010904     24.000000
  0.054518  0.032711  0.010904     48.000000
  0.076326  0.032711  0.010904     48.000000
  0.098133  0.032711  0.010904     48.000000
  0.119941  0.032711  0.010904     48.000000
  0.141748  0.032711  0.010904     48.000000
  0.163555  0.032711  0.010904     48.000000
  0.054518  0.054518  0.010904     24.000000
  0.076326  0.054518  0.010904     48.000000
  0.098133  0.054518  0.010904     48.000000
  0.119941  0.054518  0.010904     48.000000
  0.141748  0.054518  0.010904     48.000000
  0.163555  0.054518  0.010904     48.000000
  0.076326  0.076326  0.010904     24.000000
  0.098133  0.076326  0.010904     48.000000
  0.119941  0.076326  0.010904     48.000000
  0.141748  0.076326  0.010904     48.000000
  0.163555  0.076326  0.010904     48.000000
  0.098133  0.098133  0.010904     24.000000
  0.119941  0.098133  0.010904     48.000000
  0.141748  0.098133  0.010904     48.000000
  0.163555  0.098133  0.010904     48.000000
  0.119941  0.119941  0.010904     24.000000
  0.141748  0.119941  0.010904     48.000000
  0.163555  0.119941  0.010904     48.000000
  0.141748  0.141748  0.010904     24.000000
  0.163555  0.141748  0.010904     48.000000
  0.163555  0.163555  0.010904     24.000000
  0.032711  0.032711  0.032711      8.000000
  0.054518  0.032711  0.032711     24.000000
  0.076326  0.032711  0.032711     24.000000
  0.098133  0.032711  0.032711     24.000000
  0.119941  0.032711  0.032711     24.000000
  0.141748  0.032711  0.032711     24.000000
  0.163555  0.032711  0.032711     24.000000
  0.054518  0.054518  0.032711     24.000000
  0.076326  0.054518  0.032711     48.000000
  0.098133  0.054518  0.032711     48.000000
  0.119941  0.054518  0.032711     48.000000
  0.141748  0.054518  0.032711     48.000000
  0.163555  0.054518  0.032711     48.000000
  0.076326  0.076326  0.032711     24.000000
  0.098133  0.076326  0.032711     48.000000
  0.119941  0.076326  0.032711     48.000000
  0.141748  0.076326  0.032711     48.000000
  0.163555  0.076326  0.032711     48.000000
  0.098133  0.098133  0.032711     24.000000
  0.119941  0.098133  0.032711     48.000000
  0.141748  0.098133  0.032711     48.000000
  0.163555  0.098133  0.032711     48.000000
  0.119941  0.119941  0.032711     24.000000
  0.141748  0.119941  0.032711     48.000000
  0.163555  0.119941  0.032711     48.000000
  0.141748  0.141748  0.032711     24.000000
  0.163555  0.141748  0.032711     48.000000
  0.163555  0.163555  0.032711     24.000000
  0.054518  0.054518  0.054518      8.000000
  0.076326  0.054518  0.054518     24.000000
  0.098133  0.054518  0.054518     24.000000
  0.119941  0.054518  0.054518     24.000000
  0.141748  0.054518  0.054518     24.000000
  0.163555  0.054518  0.054518     24.000000
  0.076326  0.076326  0.054518     24.000000
  0.098133  0.076326  0.054518     48.000000
  0.119941  0.076326  0.054518     48.000000
  0.141748  0.076326  0.054518     48.000000
  0.163555  0.076326  0.054518     48.000000
  0.098133  0.098133  0.054518     24.000000
  0.119941  0.098133  0.054518     48.000000
  0.141748  0.098133  0.054518     48.000000
  0.163555  0.098133  0.054518     48.000000
  0.119941  0.119941  0.054518     24.000000
  0.141748  0.119941  0.054518     48.000000
  0.163555  0.119941  0.054518     48.000000
  0.141748  0.141748  0.054518     24.000000
  0.163555  0.141748  0.054518     48.000000
  0.163555  0.163555  0.054518     24.000000
  0.076326  0.076326  0.076326      8.000000
  0.098133  0.076326  0.076326     24.000000
  0.119941  0.076326  0.076326     24.000000
  0.141748  0.076326  0.076326     24.000000
  0.163555  0.076326  0.076326     24.000000
  0.098133  0.098133  0.076326     24.000000
  0.119941  0.098133  0.076326     48.000000
  0.141748  0.098133  0.076326     48.000000
  0.163555  0.098133  0.076326     48.000000
  0.119941  0.119941  0.076326     24.000000
  0.141748  0.119941  0.076326     48.000000
  0.163555  0.119941  0.076326     48.000000
  0.141748  0.141748  0.076326     24.000000
  0.163555  0.141748  0.076326     48.000000
  0.163555  0.163555  0.076326     24.000000
  0.098133  0.098133  0.098133      8.000000
  0.119941  0.098133  0.098133     24.000000
  0.141748  0.098133  0.098133     24.000000
  0.163555  0.098133  0.098133     24.000000
  0.119941  0.119941  0.098133     24.000000
  0.141748  0.119941  0.098133     48.000000
  0.163555  0.119941  0.098133     48.000000
  0.141748  0.141748  0.098133     24.000000
  0.163555  0.141748  0.098133     48.000000
  0.163555  0.163555  0.098133     24.000000
  0.119941  0.119941  0.119941      8.000000
  0.141748  0.119941  0.119941     24.000000
  0.163555  0.119941  0.119941     24.000000
  0.141748  0.141748  0.119941     24.000000
  0.163555  0.141748  0.119941     48.000000
  0.163555  0.163555  0.119941     24.000000
  0.141748  0.141748  0.141748      8.000000
  0.163555  0.141748  0.141748     24.000000
  0.163555  0.163555  0.141748     24.000000
  0.163555  0.163555  0.163555      8.000000
 


--------------------------------------------------------------------------------------------------------




 Dimension of arrays:
   k-points           NKPTS =    120   k-points in BZ     NKDIM =    120   number of bands    NBANDS=     21
   number of dos      NEDOS =    301   number of ions     NIONS =      2
   non local maximal  LDIM  =      6   non local SUM 2l+1 LMDIM =     18
   total plane-waves  NPLWV =  13824
   max r-space proj   IRMAX =   7483   max aug-charges    IRDMAX= 139318
   dimension x,y,z NGX =    24 NGY =   24 NGZ =   24
   dimension x,y,z NGXF=    48 NGYF=   48 NGZF=   48
   support grid    NGXF=    96 NGYF=   96 NGZF=   96
   ions per type =               2
   NGX,Y,Z   is equivalent  to a cutoff of  13.92, 13.92, 13.92 a.u.
   NGXF,Y,Z  is equivalent  to a cutoff of  27.84, 27.84, 27.84 a.u.

 SYSTEM =  SCF                                     
 POSCAR =  bcc Fe volume scan, a = 2.866 A         

 Startparameter for this run:
   NWRITE =      2    write-flag & timer
   PREC   = accura    normal or accurate (medium, high low for compatibility)
   ISTART =      0    job   : 0-new  1-cont  2-samecut
   ICHARG =      2    charge: 1-file 2-atom 10-const
   ISPIN  =      2    spin polarized calculation?
   LNONCOLLINEAR =      F non collinear calculations
   LSORBIT =      F    spin-orbit coupling
   INIWAV =      1    electr: 0-lowe 1-rand  2-diag
   LASPH  =      T    aspherical Exc in radial PAW
 Electronic Relaxation 1
   ENCUT  =  520.0 eV  38.22 Ry    6.18 a.u.   5.33  5.33  5.33*2*pi/ulx,y,z
   ENINI  =  520.0     initial cutoff
   ENAUG  =  578.3 eV  augmentation charge cutoff
   NELM   =    120;   NELMIN=  2; NELMDL= -5     # of ELM steps 
   EDIFF  = 0.1E-05   stopping-criterion for ELM
   LREAL  =      T    real-space projection
   NLSPLINE    = F    spline interpolate recip. space projectors
   LCOMPAT=      F    compatible to vasp.4.4
   GGA_COMPAT  = T    GGA compatible to vasp.4.4-vasp.4.6
   LMAXPAW     = -100 max onsite density
   LMAXMIX     =    4 max onsite mixed and CHGCAR
   VOSKOWN=      0    Vosko Wilk Nusair interpolation
   ROPT   =   -0.00025
 Ionic relaxation
   EDIFFG = 0.1E-04   stopping-criterion for IOM
   NSW    =      0    number of steps for IOM
   NBLOCK =      1;   KBLOCK =      1    inner block; outer block 
   IBRION =     -1    ionic relax: 0-MD 1-quasi-New 2-CG
   NFREE  =      0    steps in history (QN), initial steepest desc. (CG)
   ISIF   =      2    stress and relaxation
   IWAVPR =     10    prediction:  0-non 1-charg 2-wave 3-comb
   ISYM   =      2    0-nonsym 1-usesym 2-fastsym
   LCORR  =      T    Harris-Foulkes like correction to forces

   POTIM  = 0.5000    time-step for ionic-motion
   TEIN   =    0.0    initial temperature
   TEBEG  =    0.0;   TEEND  =   0.0 temperature during run
   SMASS  =  -3.00    Nose mass-parameter (am)
   estimated Nose-frequenzy (Omega)   =  0.10E-29 period in steps = 0.13E+47 mass=  -0.188E-27a.u.
   SCALEE = 1.0000    scale energy and forces
   NPACO  =    256;   APACO  = 10.0  distance and # of slots for P.C.
   PSTRESS=    0.0 pullay stress

  Mass of Ions in am
   POMASS =  55.85
  Ionic Valenz
   ZVAL   =  14.00
  Atomic Wigner-Seitz radii
   RWIGS  =  -1.00
  virtual crystal weights 
   VCA    =   1.00
   NELECT =      28.0000    total number of electrons
   NUPDOWN=      -1.0000    fix difference up-down

 DOS related values:
   EMIN   =  10.00;   EMAX   =-10.00  energy-range for DOS
   EFERMI =   0.00;   METHOD = LEGACY      
   ISMEAR =     1;   SIGMA  =   0.10  broadening in eV -4-tet -1-fermi 0-gaus
   EFERMI_NEDOS =   21; number of points for ismear=-14 and -15

 Electronic relaxation 2 (details)
   IALGO  =     38    algorithm
   LDIAG  =      T    sub-space diagonalisation (order eigenvalues)
   LSUBROT=      F    optimize rotation matrix (better conditioning)
   LROBUST=      F    robust break criterion during scf (extrapolated energy error)
   ISEARCH=      0    line search for conjugate gradient (0, 1=use gradient)
   TURBO    =      0    0=normal 1=particle mesh
   IRESTART =      0    0=no restart 2=restart with 2 vectors
   NREBOOT  =      0    no. of reboots
   NMIN     =      0    reboot dimension
   EREF     =   0.00    reference energy to select bands
   IMIX   =      4    mixing-type and parameters
     AMIX     =   0.40;   BMIX     =  1.00
     AMIX_MAG =   1.60;   BMIX_MAG =  1.00
     AMIN     =   0.10
     WC   =   100.;   INIMIX=   1;  MIXPRE=   1;  MAXMIX= -45

 Intra band minimization:
   WEIMIN = 0.0000     energy-eigenvalue tresh-hold
   EBREAK =  0.12E-07  absolut break condition
   DEPER  =   0.30     relativ break condition  

   TIME   =   0.40     timestep for ELM

  volume/ion in A,a.u.               =      11.77        79.43
  Fermi-wavevector in a.u.,A,eV,Ry     =   1.734541  3.277808 40.934946  3.008634
  Thomas-Fermi vector in A             =   2.808318
 
 Write flags
   LWAVE        =      F    write WAVECAR
   LDOWNSAMPLE  =      F    k-point downsampling of WAVECAR
   LCHARG       =      T    write CHGCAR
   LVTOT        =      F    write LOCPOT, total local potential
   LVHAR        =      F    write LOCPOT, Hartree potential only
   WRT_POTENTIAL= false  ! write potential to hdf5 file
   LELF         =      F    write electronic localiz. function (ELF)
   LORBIT       =      0    0 simple, 1 ext, 2 COOP (PROOUT), +10 PAW based schemes


 Python interface
   PLUGINS active      =      F    recompile with -DPLUGINS to activate
 
 Dipole corrections
   LMONO      =      F    monopole corrections only (constant potential shift)
   LDIPOL     =      F    correct potential (dipole corrections)
   IDIPOL     =      0    1-x, 2-y, 3-z, 4-all directions 
   EPSILON    =  1.0000000 bulk dielectric constant
   LVACPOTAV  =      F  vacuum potentials using an averaging scheme for the charge density
   VACPOTFLAT =  0.1000000 required flatness to determine vacuum potential
 
Coulomb truncation method
  LTRUNCATE          =      F  Coulomb kernel truncation to be used

 
 Exchange correlation treatment:
   GGA     = PE    functional components
   XC_C    = 1    coefficients multiplying the functional components
   LIBXC   =     F    Libxc                    
   VOSKOWN =     0    Vosko Wilk Nusair interpolation
   LHFCALC =     F    Hartree Fock is set to
   LHFONE  =     F    Hartree Fock one center treatment
   AEXX    =    0.0000 exact exchange contribution

 Parameters of functionals:
   PE:
     No parameter
 
 Van der Waals corrections
   IVDW    =     0    specifies the selected vdW correction

 Linear response parameters
   LEPSILON=     F    determine dielectric tensor
   LRPA    =     F    only Hartree local field effects (RPA)
   LNABLA  =     F    use nabla operator in PAW spheres
   LVEL    =     F    velocity operator in full k-point grid
   CSHIFT  =0.1000    complex shift for real part using Kramers Kronig
   OMEGAMAX=  -1.0    maximum frequency
   DEG_THRESHOLD= 0.2000000E-02 threshold for treating states as degnerate
   RTIME   =   -0.100 relaxation time in fs
  (WPLASMAI=    0.000 imaginary part of plasma frequency in eV, 0.658/RTIME)
   DFIELD  = 0.0000000 0.0000000 0.0000000 field for delta impulse in time
 
  Optional k-point grid parameters
   LKPOINTS_OPT  =     F    use optional k-point grid
   KPOINTS_OPT_MODE=     1    mode for optional k-point grid
 
 Orbital magnetization related:
   ORBITALMAG=     F  switch on orbital magnetization
   LCHIMAG   =     F  perturbation theory with respect to B field
   DQ        =  0.001000  dq finite difference perturbation B field
   LLRAUG    =     F  two centre corrections for induced B field
   LBONE     =     F  B-component reconstruction in AE one-centre
   LVGVCALC  =     T  calculate vGv susceptibility
   LVGVAPPL  =     F  apply vGv susceptibility instead of pGv for G=0

 Random number generation:
   RANDOM_GENERATOR = DEFAULT
   PCG_SEED         = not used


--------------------------------------------------------------------------------------------------------


 Static calculation
 charge density and potential will be updated during run
 spin polarized calculation
 Variant of blocked Davidson
 Davidson routine will perform the subspace rotation
 perform sub-space diagonalisation
    after iterative eigenvector-optimisation
 modified Broyden-mixing scheme, WC =      100.0
 initial mixing is a Kerker type mixing with AMIX =  0.4000 and BMIX =      1.0000
 Hartree-type preconditioning will be used
 using additional bands             7
 real space projection scheme for non local part
 use partial core corrections
 calculate Harris-corrections to forces 
   (improved forces if not selfconsistent)
 use gradient corrections 
 use of overlap-Matrix (Vanderbilt PP)
 Methfessel and Paxton  Order N= 1 SIGMA  =   0.10


--------------------------------------------------------------------------------------------------------


  energy-cutoff  :      520.00
  volume of cell :       23.54
      direct lattice vectors                 reciprocal lattice vectors
     2.866000000  0.000000000  0.000000000     0.348918353  0.000000000  0.000000000
     0.000000000  2.866000000  0.000000000     0.000000000  0.348918353  0.000000000
     0.000000000  0.000000000  2.866000000     0.000000000  0.000000000  0.348918353

  length of vectors
     2.866000000  2.866000000  2.866000000     0.348918353  0.348918353  0.348918353


 
 k-points in units of 2pi/SCALE and weight: Automatic mesh                          
   0.01090370  0.01090370  0.01090370       0.002
   0.03271110  0.01090370  0.01090370       0.006
   0.05451849  0.01090370  0.01090370       0.006
   0.07632589  0.01090370  0.01090370       0.006
   0.09813329  0.01090370  0.01090370       0.006
   0.11994068  0.01090370  0.01090370       0.006
   0.14174808  0.01090370  0.01090370       0.006
   0.16355548  0.01090370  0.01090370       0.006
   0.03271110  0.03271110  0.01090370       0.006
   0.05451849  0.03271110  0.01090370       0.012
   0.07632589  0.03271110  0.01090370       0.012
   0.09813329  0.03271110  0.01090370       0.012
   0.11994068  0.03271110  0.01090370       0.012
   0.14174808  0.03271110  0.01090370       0.012
   0.16355548  0.03271110  0.01090370       0.012
   0.05451849  0.05451849  0.01090370       0.006
   0.07632589  0.05451849  0.01090370       0.012
   0.09813329  0.05451849  0.01090370       0.012
   0.11994068  0.05451849  0.01090370       0.012
   0.14174808  0.05451849  0.01090370       0.012
   0.16355548  0.05451849  0.01090370       0.012
   0.07632589  0.07632589  0.01090370       0.006
   0.09813329  0.07632589  0.01090370       0.012
   0.11994068  0.07632589  0.01090370       0.012
   0.14174808  0.07632589  0.01090370       0.012
   0.16355548  0.07632589  0.01090370       0.012
   0.09813329  0.09813329  0.01090370       0.006
   0.11994068  0.09813329  0.01090370       0.012
   0.14174808  0.09813329  0.01090370       0.012
   0.16355548  0.09813329  0.01090370       0.012
   0.11994068  0.11994068  0.01090370       0.006
   0.14174808  0.11994068  0.01090370       0.012
   0.16355548  0.11994068  0.01090370       0.012
   0.14174808  0.14174808  0.01090370       0.006
   0.16355548  0.14174808  0.01090370       0.012
   0.16355548  0.16355548  0.01090370       0.006
   0.03271110  0.03271110  0.03271110       0.002
   0.05451849  0.03271110  0.03271110       0.006
   0.07632589  0.03271110  0.03271110       0.006
   0.09813329  0.03271110  0.03271110       0.006
   0.11994068  0.03271110  0.03271110       0.006
   0.14174808  0.03271110  0.03271110       0.006
   0.16355548  0.03271110  0.03271110       0.006
   0.05451849  0.05451849  0.03271110       0.006
   0.07632589  0.05451849  0.03271110       0.012
   0.09813329  0.05451849  0.03271110       0.012
   0.11994068  0.05451849  0.03271110       0.012
   0.14174808  0.05451849  0.03271110       0.012
   0.16355548  0.05451849  0.03271110       0.012
   0.07632589  0.07632589  0.03271110       0.006
   0.09813329  0.07632589  0.03271110       0.012
   0.11994068  0.07632589  0.03271110       0.012
   0.14174808  0.07632589  0.03271110       0.012
   0.16355548  0.07632589  0.03271110       0.012
   0.09813329  0.09813329  0.03271110       0.006
   0.11994068  0.09813329  0.03271110       0.012
   0.14174808  0.09813329  0.03271110       0.012
   0.16355548  0.09813329  0.03271110       0.012
   0.11994068  0.11994068  0.03271110       0.006
   0.14174808  0.11994068  0.03271110       0.012
   0.16355548  0.11994068  0.03271110       0.012
   0.14174808  0.14174808  0.03271110       0.006
   0.16355548  0.14174808  0.03271110       0.012
   0.16355548  0.16355548  0.03271110       0.006
   0.05451849  0.05451849  0.05451849       0.002
   0.07632589  0.05451849  0.05451849       0.006
   0.09813329  0.05451849  0.05451849       0.006
   0.11994068  0.05451849  0.05451849       0.006
   0.14174808  0.05451849  0.05451849       0.006
   0.16355548  0.05451849  0.05451849       0.006
   0.07632589  0.07632589  0.05451849       0.006
   0.09813329  0.07632589  0.05451849       0.012
   0.11994068  0.07632589  0.05451849       0.012
   0.14174808  0.07632589  0.05451849       0.012
   0.16355548  0.07632589  0.05451849       0.012
   0.09813329  0.09813329  0.05451849       0.006
   0.11994068  0.09813329  0.05451849       0.012
   0.14174808  0.09813329  0.05451849       0.012
   0.16355548  0.09813329  0.05451849       0.012
   0.11994068  0.11994068  0.05451849       0.006
   0.14174808  0.11994068  0.05451849       0.012
   0.16355548  0.11994068  0.05451849       0.012
   0.14174808  0.14174808  0.05451849       0.006
   0.16355548  0.14174808  0.05451849       0.012
   0.16355548  0.16355548  0.05451849       0.006
   0.07632589  0.07632589  0.07632589       0.002
   0.09813329  0.07632589  0.07632589       0.006
   0.11994068  0.07632589  0.07632589       0.006
   0.14174808  0.07632589  0.07632589       0.006
   0.16355548  0.07632589  0.07632589       0.006
   0.09813329  0.09813329  0.07632589       0.006
   0.11994068  0.09813329  0.07632589       0.012
   0.14174808  0.09813329  0.07632589       0.012
   0.16355548  0.09813329  0.07632589       0.012
   0.11994068  0.11994068  0.07632589       0.006
   0.14174808  0.11994068  0.07632589       0.012
   0.16355548  0.11994068  0.07632589       0.012
   0.14174808  0.14174808  0.07632589       0.006
   0.16355548  0.14174808  0.07632589       0.012
   0.16355548  0.16355548  0.07632589       0.006
   0.09813329  0.09813329  0.09813329       0.002
   0.11994068  0.09813329  0.09813329       0.006
   0.14174808  0.09813329  0.09813329       0.006
   0.16355548  0.09813329  0.09813329       0.006
   0.11994068  0.11994068  0.09813329       0.006
   0.14174808  0.11994068  0.09813329       0.012
   0.16355548  0.11994068  0.09813329       0.012
   0.14174808  0.14174808  0.09813329       0.006
   0.16355548  0.14174808  0.09813329       0.012
   0.16355548  0.16355548  0.09813329       0.006
   0.11994068  0.11994068  0.11994068       0.002
   0.14174808  0.11994068  0.11994068       0.006
   0.16355548  0.11994068  0.11994068       0.006
   0.14174808  0.14174808  0.11994068       0.006
   0.16355548  0.14174808  0.11994068       0.012
   0.16355548  0.16355548  0.11994068       0.006
   0.14174808  0.14174808  0.14174808       0.002
   0.16355548  0.14174808  0.14174808       0.006
   0.16355548  0.16355548  0.14174808       0.006
   0.16355548  0.16355548  0.16355548       0.002
 
 k-points in reciprocal lattice and weights: Automatic mesh                          
   0.03125000  0.03125000  0.03125000       0.002
   0.09375000  0.03125000  0.03125000       0.006
   0.15625000  0.03125000  0.03125000       0.006
   0.21875000  0.03125000  0.03125000       0.006
   0.28125000  0.03125000  0.03125000       0.006
   0.34375000  0.03125000  0.03125000       0.006
   0.40625000  0.03125000  0.03125000       0.006
   0.46875000  0.03125000  0.03125000       0.006
   0.09375000  0.09375000  0.03125000       0.006
   0.15625000  0.09375000  0.03125000       0.012
   0.21875000  0.09375000  0.03125000       0.012
   0.28125000  0.09375000  0.03125000       0.012
   0.34375000  0.09375000  0.03125000       0.012
   0.40625000  0.09375000  0.03125000       0.012
   0.46875000  0.09375000  0.03125000       0.012
   0.15625000  0.15625000  0.03125000       0.006
   0.21875000  0.15625000  0.03125000       0.012
   0.28125000  0.15625000  0.03125000       0.012
   0.34375000  0.15625000  0.03125000       0.012
   0.40625000  0.15625000  0.03125000       0.012
   0.46875000  0.15625000  0.03125000       0.012
   0.21875000  0.21875000  0.03125000       0.006
   0.28125000  0.21875000  0.03125000       0.012
   0.34375000  0.21875000  0.03125000       0.012
   0.40625000  0.21875000  0.03125000       0.012
   0.46875000  0.21875000  0.03125000       0.012
   0.28125000  0.28125000  0.03125000       0.006
   0.34375000  0.28125000  0.03125000       0.012
   0.40625000  0.28125000  0.03125000       0.012
   0.46875000  0.28125000  0.03125000       0.012
   0.34375000  0.34375000  0.03125000       0.006
   0.40625000  0.34375000  0.03125000       0.012
   0.46875000  0.34375000  0.03125000       0.012
   0.40625000  0.40625000  0.03125000       0.006
   0.46875000  0.40625000  0.03125000       0.012
   0.46875000  0.46875000  0.03125000       0.006
   0.09375000  0.09375000  0.09375000       0.002
   0.15625000  0.09375000  0.09375000       0.006
   0.21875000  0.09375000  0.09375000       0.006
   0.28125000  0.09375000  0.09375000       0.006
   0.34375000  0.09375000  0.09375000       0.006
   0.40625000  0.09375000  0.09375000       0.006
   0.46875000  0.09375000  0.09375000       0.006
   0.15625000  0.15625000  0.09375000       0.006
   0.21875000  0.15625000  0.09375000       0.012
   0.28125000  0.15625000  0.09375000       0.012
   0.34375000  0.15625000  0.09375000       0.012
   0.40625000  0.15625000  0.09375000       0.012
   0.46875000  0.15625000  0.09375000       0.012
   0.21875000  0.21875000  0.09375000       0.006
   0.28125000  0.21875000  0.09375000       0.012
   0.34375000  0.21875000  0.09375000       0.012
   0.40625000  0.21875000  0.09375000       0.012
   0.46875000  0.21875000  0.09375000       0.012
   0.28125000  0.28125000  0.09375000       0.006
   0.34375000  0.28125000  0.09375000       0.012
   0.40625000  0.28125000  0.09375000       0.012
   0.46875000  0.28125000  0.09375000       0.012
   0.34375000  0.34375000  0.09375000       0.006
   0.40625000  0.34375000  0.09375000       0.012
   0.46875000  0.34375000  0.09375000       0.012
   0.40625000  0.40625000  0.09375000       0.006
   0.46875000  0.40625000  0.09375000       0.012
   0.46875000  0.46875000  0.09375000       0.006
   0.15625000  0.15625000  0.15625000       0.002
   0.21875000  0.15625000  0.15625000       0.006
   0.28125000  0.15625000  0.15625000       0.006
   0.34375000  0.15625000  0.15625000       0.006
   0.40625000  0.15625000  0.15625000       0.006
   0.46875000  0.15625000  0.15625000       0.006
   0.21875000  0.21875000  0.15625000       0.006
   0.28125000  0.21875000  0.15625000       0.012
   0.34375000  0.21875000  0.15625000       0.012
   0.40625000  0.21875000  0.15625000       0.012
   0.46875000  0.21875000  0.15625000       0.012
   0.28125000  0.28125000  0.15625000       0.006
   0.34375000  0.28125000  0.15625000       0.012
   0.40625000  0.28125000  0.15625000       0.012
   0.46875000  0.28125000  0.15625000       0.012
   0.34375000  0.34375000  0.15625000       0.006
   0.40625000  0.34375000  0.15625000       0.012
   0.46875000  0.34375000  0.15625000       0.012
   0.40625000  0.40625000  0.15625000       0.006
   0.46875000  0.40625000  0.15625000       0.012
   0.46875000  0.46875000  0.15625000       0.006
   0.21875000  0.21875000  0.21875000       0.002
   0.28125000  0.21875000  0.21875000       0.006
   0.34375000  0.21875000  0.21875000       0.006
   0.40625000  0.21875000  0.21875000       0.006
   0.46875000  0.21875000  0.21875000       0.006
   0.28125000  0.28125000  0.21875000       0.006
   0.34375000  0.28125000  0.21875000       0.012
   0.40625000  0.28125000  0.21875000       0.012
   0.46875000  0.28125000  0.21875000       0.012
   0.34375000  0.34375000  0.21875000       0.006
   0.40625000  0.34375000  0.21875000       0.012
   0.46875000  0.34375000  0.21875000       0.012
   0.40625000  0.40625000  0.21875000       0.006
   0.46875000  0.40625000  0.21875000       0.012
   0.46875000  0.46875000  0.21875000       0.006
   0.28125000  0.28125000  0.28125000       0.002
   0.34375000  0.28125000  0.28125000       0.006
   0.40625000  0.28125000  0.28125000       0.006
   0.46875000  0.28125000  0.28125000       0.006
   0.34375000  0.34375000  0.28125000       0.006
   0.40625000  0.34375000  0.28125000       0.012
   0.46875000  0.34375000  0.28125000       0.012
   0.40625000  0.40625000  0.28125000       0.006
   0.46875000  0.40625000  0.28125000       0.012
   0.46875000  0.46875000  0.28125000       0.006
   0.34375000  0.34375000  0.34375000       0.002
   0.40625000  0.34375000  0.34375000       0.006
   0.46875000  0.34375000  0.34375000       0.006
   0.40625000  0.40625000  0.34375000       0.006
   0.46875000  0.40625000  0.34375000       0.012
   0.46875000  0.46875000  0.34375000       0.006
   0.40625000  0.40625000  0.40625000       0.002
   0.46875000  0.40625000  0.40625000       0.006
   0.46875000  0.46875000  0.40625000       0.006
   0.46875000  0.46875000  0.46875000       0.002
 
 position of ions in fractional coordinates (direct lattice) 
   0.00000000  0.00000000  0.00000000
   0.50000000  0.50000000  0.50000000
 
 position of ions in cartesian coordinates  (Angst):
   0.00000000  0.00000000  0.00000000
   1.43300000  1.43300000  1.43300000
 


--------------------------------------------------------------------------------------------------------


 k-point     1 :   0.0313 0.0313 0.0313  plane waves:     619
 k-point     2 :   0.0938 0.0313 0.0313  plane waves:     637
 k-point     3 :   0.1563 0.0313 0.0313  plane waves:     641
 k-point     4 :   0.2188 0.0313 0.0313  plane waves:     650
 k-point     5 :   0.2813 0.0313 0.0313  plane waves:     644
 k-point     6 :   0.3438 0.0313 0.0313  plane waves:     638
 k-point     7 :   0.4063 0.0313 0.0313  plane waves:     634
 k-point     8 :   0.4688 0.0313 0.0313  plane waves:     629
 k-point     9 :   0.0938 0.0938 0.0313  plane waves:     639
 k-point    10 :   0.1563 0.0938 0.0313  plane waves:     643
 k-point    11 :   0.2188 0.0938 0.0313  plane waves:     648
 k-point    12 :   0.2813 0.0938 0.0313  plane waves:     641
 k-point    13 :   0.3438 0.0938 0.0313  plane waves:     637
 k-point    14 :   0.4063 0.0938 0.0313  plane waves:     633
 k-point    15 :   0.4688 0.0938 0.0313  plane waves:     633
 k-point    16 :   0.1563 0.1563 0.0313  plane waves:     645
 k-point    17 :   0.2188 0.1563 0.0313  plane waves:     643
 k-point    18 :   0.2813 0.1563 0.0313  plane waves:     642
 k-point    19 :   0.3438 0.1563 0.0313  plane waves:     637
 k-point    20 :   0.4063 0.1563 0.0313  plane waves:     631
 k-point    21 :   0.4688 0.1563 0.0313  plane waves:     634
 k-point    22 :   0.2188 0.2188 0.0313  plane waves:     635
 k-point    23 :   0.2813 0.2188 0.0313  plane waves:     638
 k-point    24 :   0.3438 0.2188 0.0313  plane waves:     631
 k-point    25 :   0.4063 0.2188 0.0313  plane waves:     628
 k-point    26 :   0.4688 0.2188 0.0313  plane waves:     629
 k-point    27 :   0.2813 0.2813 0.0313  plane waves:     633
 k-point    28 :   0.3438 0.2813 0.0313  plane waves:     635
 k-point    29 :   0.4063 0.2813 0.0313  plane waves:     632
 k-point    30 :   0.4688 0.2813 0.0313  plane waves:     627
 k-point    31 :   0.3438 0.3438 0.0313  plane waves:     633
 k-point    32 :   0.4063 0.3438 0.0313  plane waves:     631
 k-point    33 :   0.4688 0.3438 0.0313  plane waves:     633
 k-point    34 :   0.4063 0.4063 0.0313  plane waves:     634
 k-point    35 :   0.4688 0.4063 0.0313  plane waves:     635
 k-point    36 :   0.4688 0.4688 0.0313  plane waves:     635
 k-point    37 :   0.0938 0.0938 0.0938  plane waves:     636
 k-point    38 :   0.1563 0.0938 0.0938  plane waves:     643
 k-point    39 :   0.2188 0.0938 0.0938  plane waves:     646
 k-point    40 :   0.2813 0.0938 0.0938  plane waves:     640
 k-point    41 :   0.3438 0.0938 0.0938  plane waves:     635
 k-point    42 :   0.4063 0.0938 0.0938  plane waves:     635
 k-point    43 :   0.4688 0.0938 0.0938  plane waves:     628
 k-point    44 :   0.1563 0.1563 0.0938  plane waves:     645
 k-point    45 :   0.2188 0.1563 0.0938  plane waves:     641
 k-point    46 :   0.2813 0.1563 0.0938  plane waves:     640
 k-point    47 :   0.3438 0.1563 0.0938  plane waves:     632
 k-point    48 :   0.4063 0.1563 0.0938  plane waves:     634
 k-point    49 :   0.4688 0.1563 0.0938  plane waves:     632
 k-point    50 :   0.2188 0.2188 0.0938  plane waves:     636
 k-point    51 :   0.2813 0.2188 0.0938  plane waves:     635
 k-point    52 :   0.3438 0.2188 0.0938  plane waves:     632
 k-point    53 :   0.4063 0.2188 0.0938  plane waves:     629
 k-point    54 :   0.4688 0.2188 0.0938  plane waves:     630
 k-point    55 :   0.2813 0.2813 0.0938  plane waves:     631
 k-point    56 :   0.3438 0.2813 0.0938  plane waves:     631
 k-point    57 :   0.4063 0.2813 0.0938  plane waves:     628
 k-point    58 :   0.4688 0.2813 0.0938  plane waves:     633
 k-point    59 :   0.3438 0.3438 0.0938  plane waves:     631
 k-point    60 :   0.4063 0.3438 0.0938  plane waves:     628
 k-point    61 :   0.4688 0.3438 0.0938  plane waves:     627
 k-point    62 :   0.4063 0.4063 0.0938  plane waves:     633
 k-point    63 :   0.4688 0.4063 0.0938  plane waves:     632
 k-point    64 :   0.4688 0.4688 0.0938  plane waves:     634
 k-point    65 :   0.1563 0.1563 0.1563  plane waves:     645
 k-point    66 :   0.2188 0.1563 0.1563  plane waves:     636
 k-point    67 :   0.2813 0.1563 0.1563  plane waves:     636
 k-point    68 :   0.3438 0.1563 0.1563  plane waves:     635
 k-point    69 :   0.4063 0.1563 0.1563  plane waves:     631
 k-point    70 :   0.4688 0.1563 0.1563  plane waves:     635
 k-point    71 :   0.2188 0.2188 0.1563  plane waves:     638
 k-point    72 :   0.2813 0.2188 0.1563  plane waves:     631
 k-point    73 :   0.3438 0.2188 0.1563  plane waves:     633
 k-point    74 :   0.4063 0.2188 0.1563  plane waves:     632
 k-point    75 :   0.4688 0.2188 0.1563  plane waves:     632
 k-point    76 :   0.2813 0.2813 0.1563  plane waves:     630
 k-point    77 :   0.3438 0.2813 0.1563  plane waves:     625
 k-point    78 :   0.4063 0.2813 0.1563  plane waves:     632
 k-point    79 :   0.4688 0.2813 0.1563  plane waves:     628
 k-point    80 :   0.3438 0.3438 0.1563  plane waves:     625
 k-point    81 :   0.4063 0.3438 0.1563  plane waves:     629
 k-point    82 :   0.4688 0.3438 0.1563  plane waves:     629
 k-point    83 :   0.4063 0.4063 0.1563  plane waves:     633
 k-point    84 :   0.4688 0.4063 0.1563  plane waves:     632
 k-point    85 :   0.4688 0.4688 0.1563  plane waves:     634
 k-point    86 :   0.2188 0.2188 0.2188  plane waves:     633
 k-point    87 :   0.2813 0.2188 0.2188  plane waves:     632
 k-point    88 :   0.3438 0.2188 0.2188  plane waves:     633
 k-point    89 :   0.4063 0.2188 0.2188  plane waves:     632
 k-point    90 :   0.4688 0.2188 0.2188  plane waves:     638
 k-point    91 :   0.2813 0.2813 0.2188  plane waves:     628
 k-point    92 :   0.3438 0.2813 0.2188  plane waves:     629
 k-point    93 :   0.4063 0.2813 0.2188  plane waves:     631
 k-point    94 :   0.4688 0.2813 0.2188  plane waves:     635
 k-point    95 :   0.3438 0.3438 0.2188  plane waves:     627
 k-point    96 :   0.4063 0.3438 0.2188  plane waves:     631
 k-point    97 :   0.4688 0.3438 0.2188  plane waves:     633
 k-point    98 :   0.4063 0.4063 0.2188  plane waves:     632
 k-point    99 :   0.4688 0.4063 0.2188  plane waves:     634
 k-point   100 :   0.4688 0.4688 0.2188  plane waves:     630
 k-point   101 :   0.2813 0.2813 0.2813  plane waves:     627
 k-point   102 :   0.3438 0.2813 0.2813  plane waves:     631
 k-point   103 :   0.4063 0.2813 0.2813  plane waves:     636
 k-point   104 :   0.4688 0.2813 0.2813  plane waves:     634
 k-point   105 :   0.3438 0.3438 0.2813  plane waves:     631
 k-point   106 :   0.4063 0.3438 0.2813  plane waves:     633
 k-point   107 :   0.4688 0.3438 0.2813  plane waves:     634
 k-point   108 :   0.4063 0.4063 0.2813  plane waves:     632
 k-point   109 :   0.4688 0.4063 0.2813  plane waves:     633
 k-point   110 :   0.4688 0.4688 0.2813  plane waves:     637
 k-point   111 :   0.3438 0.3438 0.3438  plane waves:     627
 k-point   112 :   0.4063 0.3438 0.3438  plane waves:     633
 k-point   113 :   0.4688 0.3438 0.3438  plane waves:     636
 k-point   114 :   0.4063 0.4063 0.3438  plane waves:     633
 k-point   115 :   0.4688 0.4063 0.3438  plane waves:     636
 k-point   116 :   0.4688 0.4688 0.3438  plane waves:     644
 k-point   117 :   0.4063 0.4063 0.4063  plane waves:     642
 k-point   118 :   0.4688 0.4063 0.4063  plane waves:     644
 k-point   119 :   0.4688 0.4688 0.4063  plane waves:     640
 k-point   120 :   0.4688 0.4688 0.4688  plane waves:     630

 maximum and minimum number of plane-waves per node :       650      619

 maximum number of plane-waves:       650
 maximum index in each direction: 
   IXMAX=    5   IYMAX=    5   IZMAX=    5
   IXMIN=   -5   IYMIN=   -5   IZMIN=   -5


 serial   3D FFT for wavefunctions
 parallel 3D FFT for charge:
    minimum data exchange during FFTs selected (reduces bandwidth)


 total amount of memory used by VASP MPI-rank0   113756. kBytes
=======================================================================

   base                                    :      30000. kBytes
   nonlr-proj                              :       2506. kBytes
   fftplans                                :      16524. kBytes
   grid                                    :       9345. kBytes
   one-center                              :         62. kBytes
   wavefun                                 :      55319. kBytes
 
     INWAV:  cpu time      0.0000: real time      0.0000
 Broyden mixing: mesh for mixing (old mesh)
   NGX = 11   NGY = 11   NGZ = 11
  (NGX  = 48   NGY  = 48   NGZ  = 48)
  gives a total of   1331 points

 initial charge density was supplied:
 charge density of overlapping atoms calculated
 number of electron      28.0000000 magnetization       5.0000000
 keeping initial charge density in first step


--------------------------------------------------------------------------------------------------------


 Maximum index for non-local projection operator          7123
 Maximum index for augmentation-charges        134731 (set IRDMAX)


--------------------------------------------------------------------------------------------------------


 First call to EWALD:  gamma=   0.618
 Maximum number of real-space cells   3x   3x   3
 Maximum number of reciprocal cells   3x   3x   3

    FEWALD:  cpu time      0.0006: real time      0.0006


--------------------------------------- Ionic step        1  -------------------------------------------




--------------------------------------- Iteration      1(   1)  ---------------------------------------


    POTLOK:  cpu time      0.0159: real time      0.0159
    SETDIJ:  cpu time      0.2600: real time      0.2599
     EDDAV:  cpu time      6.7839: real time      6.7822
       DOS:  cpu time      0.0021: real time      0.0021
    --------------------------------------------
      LOOP:  cpu time      7.0618: real time      7.0600

 eigenvalue-minimisations  : 10593
 total energy-change (2. order) : 0.2748599E+03  (-0.1662081E+04)
 number of electron      28.0000000 magnetization       5.0000000
 augmentation part       28.0000000 magnetization       5.0000000

 Free energy of the ion-electron system (eV)
  ---------------------------------------------------
  alpha Z        PSCENC =       212.97936214
  Ewald energy   TEWEN  =     -3583.81742277
  -Hartree energ DENC   =     -1180.63873894
  -exchange      EXHF   =         0.00000000
  -V(xc)+E(xc)   XCENC  =       143.70747773
  PAW double counting   =      4001.43393019    -4181.17956753
  entropy T*S    EENTRO =        -0.00111808
  eigenvalues    EBANDS =       -52.45951145
  atomic energy  EATOM  =      4914.83548677
  Solvation  Ediel_sol  =         0.00000000
  ---------------------------------------------------
  free energy    TOTEN  =       274.85989808 eV

  energy without entropy =      274.86101616  energy(sigma->0) =      274.86027077


--------------------------------------------------------------------------------------------------------




--------------------------------------- Iteration      1(   2)  ---------------------------------------


     EDDAV:  cpu time      6.4404: real time      6.4389
       DOS:  cpu time      0.0023: real time      0.0023
    --------------------------------------------
      LOOP:  cpu time      6.4428: real time      6.4413

 eigenvalue-minimisations  : 10105
 total energy-change (2. order) :-0.2803503E+03  (-0.2693791E+03)
 number of electron      28.0000000 magnetization       5.0000000
 augmentation part       28.0000000 magnetization       5.0000000

 Free energy of the ion-electron system (eV)
  ---------------------------------------------------
  alpha Z        PSCENC =       212.97936214
  Ewald energy   TEWEN  =     -3583.81742277
  -Hartree energ DENC   =     -1180.63873894
  -exchange      EXHF   =         0.00000000
  -V(xc)+E(xc)   XCENC  =       143.70747773
  PAW double counting   =      4001.43393019    -4181.17956753
  entropy T*S    EENTRO =         0.00055151
  eigenvalues    EBANDS =      -332.81149963
  atomic energy  EATOM  =      4914.83548677
  Solvation  Ediel_sol  =         0.00000000
  ---------------------------------------------------
  free energy    TOTEN  =        -5.49042051 eV

  energy without entropy =       -5.49097202  energy(sigma->0) =       -5.49060434


--------------------------------------------------------------------------------------------------------




--------------------------------------- Iteration      1(   3)  ---------------------------------------


     EDDAV:  cpu time      6.8176: real time      6.8160
       DOS:  cpu time      0.0023: real time      0.0023
    --------------------------------------------
      LOOP:  cpu time      6.8199: real time      6.8183

 eigenvalue-minimisations  : 10755
 total energy-change (2. order) :-0.1311195E+02  (-0.1295915E+02)
 number of electron      28.0000000 magnetization       5.0000000
 augmentation part       28.0000000 magnetization       5.0000000

 Free energy of the ion-electron system (eV)
  ---------------------------------------------------
  alpha Z        PSCENC =       212.97936214
  Ewald energy   TEWEN  =     -3583.81742277
  -Hartree energ DENC   =     -1180.63873894
  -exchange      EXHF   =         0.00000000
  -V(xc)+E(xc)   XCENC  =       143.70747773
  PAW double counting   =      4001.43393019    -4181.17956753
  entropy T*S    EENTRO =         0.00112991
  eigenvalues    EBANDS =      -345.92403209
  atomic energy  EATOM  =      4914.83548677
  Solvation  Ediel_sol  =         0.00000000
  ---------------------------------------------------
  free energy    TOTEN  =       -18.60237457 eV

  energy without entropy =      -18.60350448  energy(sigma->0) =      -18.60275121


--------------------------------------------------------------------------------------------------------




--------------------------------------- Iteration      1(   4)  ---------------------------------------


     EDDAV:  cpu time      7.1733: real time      7.1716
       DOS:  cpu time      0.0023: real time      0.0023
    --------------------------------------------
      LOOP:  cpu time      7.1756: real time      7.1740

 eigenvalue-minimisations  : 11370
 total energy-change (2. order) :-0.1683813E+00  (-0.1683531E+00)
 number of electron      28.0000000 magnetization       5.0000000
 augmentation part       28.0000000 magnetization       5.0000000

 Free energy of the ion-electron system (eV)
  ---------------------------------------------------
  alpha Z        PSCENC =       212.97936214
  Ewald energy   TEWEN  =     -3583.81742277
  -Hartree energ DENC   =     -1180.63873894
  -exchange      EXHF   =         0.00000000
  -V(xc)+E(xc)   XCENC  =       143.70747773
  PAW double counting   =      4001.43393019    -4181.17956753
  entropy T*S    EENTRO =         0.00113560
  eigenvalues    EBANDS =      -346.09241911
  atomic energy  EATOM  =      4914.83548677
  Solvation  Ediel_sol  =         0.00000000
  ---------------------------------------------------
  free energy    TOTEN  =       -18.77075590 eV

  energy without entropy =      -18.77189150  energy(sigma->0) =      -18.77113443


--------------------------------------------------------------------------------------------------------




--------------------------------------- Iteration      1(   5)  ---------------------------------------


     EDDAV:  cpu time      6.9830: real time      6.9814
       DOS:  cpu time      0.0022: real time      0.0022
    CHARGE:  cpu time      0.3654: real time      0.3653
    MIXING:  cpu time      0.0025: real time      0.0025
    --------------------------------------------
      LOOP:  cpu time      7.3531: real time      7.3514

 eigenvalue-minimisations  : 11056
 total energy-change (2. order) :-0.4161029E-02  (-0.4161003E-02)
 number of electron      28.0000000 magnetization       4.0069588
 augmentation part       15.7569948 magnetization       2.8173039

 Broyden mixing:
  rms(total) = 0.16030E+01    rms(broyden)= 0.16028E+01
  rms(prec ) = 0.36962E+01
  weight for this iteration     100.00

 Free energy of the ion-electron system (eV)
  ---------------------------------------------------
  alpha Z        PSCENC =       212.97936214
  Ewald energy   TEWEN  =     -3583.81742277
  -Hartree energ DENC   =     -1180.63873894
  -exchange      EXHF   =         0.00000000
  -V(xc)+E(xc)   XCENC  =       143.70747773
  PAW double counting   =      4001.43393019    -4181.17956753
  entropy T*S    EENTRO =         0.00113559
  eigenvalues    EBANDS =      -346.09658013
  atomic energy  EATOM  =      4914.83548677
  Solvation  Ediel_sol  =         0.00000000
  ---------------------------------------------------
  free energy    TOTEN  =       -18.77491693 eV

  energy without entropy =      -18.77605252  energy(sigma->0) =      -18.77529546


--------------------------------------------------------------------------------------------------------




--------------------------------------- Iteration      1(   6)  ---------------------------------------


    POTLOK:  cpu time      0.0056: real time      0.0056
    SETDIJ:  cpu time      0.2488: real time      0.2487
     EDDAV:  cpu time      6.6280: real time      6.6266
       DOS:  cpu time      0.0023: real time      0.0023
    CHARGE:  cpu time      0.3583: real time      0.3582
    MIXING:  cpu time      0.0025: real time      0.0025
    --------------------------------------------
      LOOP:  cpu time      7.2456: real time      7.2440

 eigenvalue-minimisations  : 10440
 total energy-change (2. order) : 0.2025593E+01  (-0.1400108E+01)
 number of electron      28.0000000 magnetization       4.3714801
 augmentation part       17.2314237 magnetization       3.4037999

 Broyden mixing:
  rms(total) = 0.88148E+00    rms(broyden)= 0.88137E+00
  rms(prec ) = 0.12953E+01
  weight for this iteration     100.00

 eigenvalues of (default mixing * dielectric matrix)
  average eigenvalue GAMMA=   0.5599
  0.5599

 Free energy of the ion-electron system (eV)
  ---------------------------------------------------
  alpha Z        PSCENC =       212.97936214
  Ewald energy   TEWEN  =     -3583.81742277
  -Hartree energ DENC   =     -1099.08924163
  -exchange      EXHF   =         0.00000000
  -V(xc)+E(xc)   XCENC  =       139.94065940
  PAW double counting   =      4048.50627256    -4222.16973047
  entropy T*S    EENTRO =        -0.00051854
  eigenvalues    EBANDS =      -427.93419138
  atomic energy  EATOM  =      4914.83548677
  Solvation  Ediel_sol  =         0.00000000
  ---------------------------------------------------
  free energy    TOTEN  =       -16.74932391 eV

  energy without entropy =      -16.74880537  energy(sigma->0) =      -16.74915106


--------------------------------------------------------------------------------------------------------




--------------------------------------- Iteration      1(   7)  ---------------------------------------


    POTLOK:  cpu time      0.0056: real time      0.0056
    SETDIJ:  cpu time      0.2449: real time      0.2449
     EDDAV:  cpu time      6.6798: real time      6.6783
       DOS:  cpu time      0.0023: real time      0.0023
    CHARGE:  cpu time      0.3576: real time      0.3575
    MIXING:  cpu time      0.0026: real time      0.0026
    --------------------------------------------
      LOOP:  cpu time      7.2928: real time      7.2912

 eigenvalue-minimisations  : 10535
 total energy-change (2. order) : 0.2095639E+00  (-0.1312956E+00)
 number of electron      28.0000000 magnetization       4.4245369
 augmentation part       16.7965160 magnetization       3.4818195

 Broyden mixing:
  rms(total) = 0.44079E+00    rms(broyden)= 0.44079E+00
  rms(prec ) = 0.51446E+00
  weight for this iteration     100.00

 eigenvalues of (default mixing * dielectric matrix)
  average eigenvalue GAMMA=   0.7502
  0.9563  0.5441

 Free energy of the ion-electron system (eV)
  ---------------------------------------------------
  alpha Z        PSCENC =       212.97936214
  Ewald energy   TEWEN  =     -3583.81742277
  -Hartree energ DENC   =     -1116.48321847
  -exchange      EXHF   =         0.00000000
  -V(xc)+E(xc)   XCENC  =       140.99373430
  PAW double counting   =      4166.26819824    -4345.98016929
  entropy T*S    EENTRO =        -0.00054838
  eigenvalues    EBANDS =      -405.33518260
  atomic energy  EATOM  =      4914.83548677
  Solvation  Ediel_sol  =         0.00000000
  ---------------------------------------------------
  free energy    TOTEN  =       -16.53976005 eV

  energy without entropy =      -16.53921168  energy(sigma->0) =      -16.53957726


--------------------------------------------------------------------------------------------------------




--------------------------------------- Iteration      1(   8)  ---------------------------------------


    POTLOK:  cpu time      0.0056: real time      0.0056
    SETDIJ:  cpu time      0.2456: real time      0.2455
     EDDAV:  cpu time      6.8896: real time      6.8880
       DOS:  cpu time      0.0023: real time      0.0023
    CHARGE:  cpu time      0.3593: real time      0.3592
    MIXING:  cpu time      0.0025: real time      0.0025
    --------------------------------------------
      LOOP:  cpu time      7.5049: real time      7.5031

 eigenvalue-minimisations  : 10885
 total energy-change (2. order) : 0.7165861E-02  (-0.1390633E-02)
 number of electron      28.0000000 magnetization       4.5014437
 augmentation part       16.8156083 magnetization       3.5557764

 Broyden mixing:
  rms(total) = 0.18238E+00    rms(broyden)= 0.18238E+00
  rms(prec ) = 0.24714E+00
  weight for this iteration     100.00

 eigenvalues of (default mixing * dielectric matrix)
  average eigenvalue GAMMA=   1.0788
  1.9155  0.6604  0.6604

 Free energy of the ion-electron system (eV)
  ---------------------------------------------------
  alpha Z        PSCENC =       212.97936214
  Ewald energy   TEWEN  =     -3583.81742277
  -Hartree energ DENC   =     -1113.36995511
  -exchange      EXHF   =         0.00000000
  -V(xc)+E(xc)   XCENC  =       140.90645517
  PAW double counting   =      4224.18012322    -4405.83606432
  entropy T*S    EENTRO =        -0.00065037
  eigenvalues    EBANDS =      -406.40992893
  atomic energy  EATOM  =      4914.83548677
  Solvation  Ediel_sol  =         0.00000000
  ---------------------------------------------------
  free energy    TOTEN  =       -16.53259419 eV

  energy without entropy =      -16.53194382  energy(sigma->0) =      -16.53237740


--------------------------------------------------------------------------------------------------------




--------------------------------------- Iteration      1(   9)  ---------------------------------------


    POTLOK:  cpu time      0.0057: real time      0.0057
    SETDIJ:  cpu time      0.2475: real time      0.2474
     EDDAV:  cpu time      6.9978: real time      6.9961
       DOS:  cpu time      0.0023: real time      0.0023
    CHARGE:  cpu time      0.3523: real time      0.3522
    MIXING:  cpu time      0.0026: real time      0.0026
    --------------------------------------------
      LOOP:  cpu time      7.6081: real time      7.6062

 eigenvalue-minimisations  : 11080
 total energy-change (2. order) : 0.1046821E-01  (-0.4078905E-03)
 number of electron      28.0000000 magnetization       4.4999612
 augmentation part       16.8478472 magnetization       3.5500599

 Broyden mixing:
  rms(total) = 0.38800E-01    rms(broyden)= 0.38789E-01
  rms(prec ) = 0.43104E-01
  weight for this iteration     100.00

 eigenvalues of (default mixing * dielectric matrix)
  average eigenvalue GAMMA=   1.2452
  2.5520  1.0725  0.7442  0.6122

 Free energy of the ion-electron system (eV)
  ---------------------------------------------------
  alpha Z        PSCENC =       212.97936214
  Ewald energy   TEWEN  =     -3583.81742277
  -Hartree energ DENC   =     -1108.42654292
  -exchange      EXHF   =         0.00000000
  -V(xc)+E(xc)   XCENC  =       140.76909239
  PAW double counting   =      4319.20754425    -4503.86079507
  entropy T*S    EENTRO =        -0.00051764
  eigenvalues    EBANDS =      -408.20833313
  atomic energy  EATOM  =      4914.83548677
  Solvation  Ediel_sol  =         0.00000000
  ---------------------------------------------------
  free energy    TOTEN  =       -16.52212598 eV

  energy without entropy =      -16.52160834  energy(sigma->0) =      -16.52195344


--------------------------------------------------------------------------------------------------------




--------------------------------------- Iteration      1(  10)  ---------------------------------------


    POTLOK:  cpu time      0.0056: real time      0.0056
    SETDIJ:  cpu time      0.2443: real time      0.2442
     EDDAV:  cpu time      6.7587: real time      6.7571
       DOS:  cpu time      0.0022: real time      0.0022
    CHARGE:  cpu time      0.3514: real time      0.3513
    MIXING:  cpu time      0.0025: real time      0.0025
    --------------------------------------------
      LOOP:  cpu time      7.3648: real time      7.3630

 eigenvalue-minimisations  : 10670
 total energy-change (2. order) :-0.1192480E-03  (-0.1591116E-03)
 number of electron      28.0000000 magnetization       4.4765396
 augmentation part       16.8392375 magnetization       3.5240320

 Broyden mixing:
  rms(total) = 0.11365E-01    rms(broyden)= 0.11365E-01
  rms(prec ) = 0.12213E-01
  weight for this iteration     100.00

 eigenvalues of (default mixing * dielectric matrix)
  average eigenvalue GAMMA=   1.2575
  2.6714  1.4744  0.8537  0.6440  0.6440

 Free energy of the ion-electron system (eV)
  ---------------------------------------------------
  alpha Z        PSCENC =       212.97936214
  Ewald energy   TEWEN  =     -3583.81742277
  -Hartree energ DENC   =     -1107.97896269
  -exchange      EXHF   =         0.00000000
  -V(xc)+E(xc)   XCENC  =       140.75148674
  PAW double counting   =      4345.29734229    -4530.65481762
  entropy T*S    EENTRO =        -0.00047502
  eigenvalues    EBANDS =      -407.93424507
  atomic energy  EATOM  =      4914.83548677
  Solvation  Ediel_sol  =         0.00000000
  ---------------------------------------------------
  free energy    TOTEN  =       -16.52224523 eV

  energy without entropy =      -16.52177021  energy(sigma->0) =      -16.52208689


--------------------------------------------------------------------------------------------------------




--------------------------------------- Iteration      1(  11)  ---------------------------------------


    POTLOK:  cpu time      0.0056: real time      0.0056
    SETDIJ:  cpu time      0.2495: real time      0.2494
     EDDAV:  cpu time      7.0025: real time      7.0008
       DOS:  cpu time      0.0023: real time      0.0023
    CHARGE:  cpu time      0.3539: real time      0.3538
    MIXING:  cpu time      0.0026: real time      0.0026
    --------------------------------------------
      LOOP:  cpu time      7.6163: real time      7.6145

 eigenvalue-minimisations  : 11103
 total energy-change (2. order) :-0.5863580E-04  (-0.1887963E-04)
 number of electron      28.0000000 magnetization       4.4772658
 augmentation part       16.8408433 magnetization       3.5252288

 Broyden mixing:
  rms(total) = 0.63772E-02    rms(broyden)= 0.63742E-02
  rms(prec ) = 0.66031E-02
  weight for this iteration     100.00

 eigenvalues of (default mixing * dielectric matrix)
  average eigenvalue GAMMA=   1.1499
  2.4425  1.4340  1.0029  0.6376  0.6912  0.6912

 Free energy of the ion-electron system (eV)
  ---------------------------------------------------
  alpha Z        PSCENC =       212.97936214
  Ewald energy   TEWEN  =     -3583.81742277
  -Hartree energ DENC   =     -1107.94546019
  -exchange      EXHF   =         0.00000000
  -V(xc)+E(xc)   XCENC  =       140.73276304
  PAW double counting   =      4346.32428503    -4531.56591140
  entropy T*S    EENTRO =        -0.00045750
  eigenvalues    EBANDS =      -408.06494899
  atomic energy  EATOM  =      4914.83548677
  Solvation  Ediel_sol  =         0.00000000
  ---------------------------------------------------
  free energy    TOTEN  =       -16.52230387 eV

  energy without entropy =      -16.52184637  energy(sigma->0) =      -16.52215137


--------------------------------------------------------------------------------------------------------




--------------------------------------- Iteration      1(  12)  ---------------------------------------


    POTLOK:  cpu time      0.0056: real time      0.0056
    SETDIJ:  cpu time      0.2444: real time      0.2443
     EDDAV:  cpu time      6.9004: real time      6.8988
       DOS:  cpu time      0.0023: real time      0.0023
    CHARGE:  cpu time      0.3535: real time      0.3534
    MIXING:  cpu time      0.0026: real time      0.0026
    --------------------------------------------
      LOOP:  cpu time      7.5087: real time      7.5070

 eigenvalue-minimisations  : 10930
 total energy-change (2. order) :-0.2775385E-05  (-0.1883513E-05)
 number of electron      28.0000000 magnetization       4.4777200
 augmentation part       16.8415100 magnetization       3.5260827

 Broyden mixing:
  rms(total) = 0.12252E-02    rms(broyden)= 0.12250E-02
  rms(prec ) = 0.17775E-02
  weight for this iteration     100.00

 eigenvalues of (default mixing * dielectric matrix)
  average eigenvalue GAMMA=   1.1153
  2.4266  1.4190  1.0773  0.8701  0.6346  0.6899  0.6899

 Free energy of the ion-electron system (eV)
  ---------------------------------------------------
  alpha Z        PSCENC =       212.97936214
  Ewald energy   TEWEN  =     -3583.81742277
  -Hartree energ DENC   =     -1107.99305751
  -exchange      EXHF   =         0.00000000
  -V(xc)+E(xc)   XCENC  =       140.73639430
  PAW double counting   =      4344.38694837    -4529.56054902
  entropy T*S    EENTRO =        -0.00045721
  eigenvalues    EBANDS =      -408.08901172
  atomic energy  EATOM  =      4914.83548677
  Solvation  Ediel_sol  =         0.00000000
  ---------------------------------------------------
  free energy    TOTEN  =       -16.52230664 eV

  energy without entropy =      -16.52184943  energy(sigma->0) =      -16.52215424


--------------------------------------------------------------------------------------------------------




--------------------------------------- Iteration      1(  13)  ---------------------------------------


    POTLOK:  cpu time      0.0056: real time      0.0056
    SETDIJ:  cpu time      0.2449: real time      0.2448
     EDDAV:  cpu time      4.9399: real time      4.9387
       DOS:  cpu time      0.0023: real time      0.0023
    CHARGE:  cpu time      0.3528: real time      0.3528
    MIXING:  cpu time      0.0027: real time      0.0027
    --------------------------------------------
      LOOP:  cpu time      5.5483: real time      5.5469

 eigenvalue-minimisations  :  6515
 total energy-change (2. order) : 0.1305196E-05  (-0.5123729E-07)
 number of electron      28.0000000 magnetization       4.4775028
 augmentation part       16.8415193 magnetization       3.5259165

 Broyden mixing:
  rms(total) = 0.54449E-03    rms(broyden)= 0.54444E-03
  rms(prec ) = 0.74260E-03
  weight for this iteration     100.00

 eigenvalues of (default mixing * dielectric matrix)
  average eigenvalue GAMMA=   1.2414
  2.5884  2.1525  1.3699  1.1143  0.7478  0.6648  0.6648  0.6285

 Free energy of the ion-electron system (eV)
  ---------------------------------------------------
  alpha Z        PSCENC =       212.97936214
  Ewald energy   TEWEN  =     -3583.81742277
  -Hartree energ DENC   =     -1108.02292643
  -exchange      EXHF   =         0.00000000
  -V(xc)+E(xc)   XCENC  =       140.73805903
  PAW double counting   =      4344.75883012    -4529.90434847
  entropy T*S    EENTRO =        -0.00045669
  eigenvalues    EBANDS =      -408.08888905
  atomic energy  EATOM  =      4914.83548677
  Solvation  Ediel_sol  =         0.00000000
  ---------------------------------------------------
  free energy    TOTEN  =       -16.52230534 eV

  energy without entropy =      -16.52184865  energy(sigma->0) =      -16.52215311


--------------------------------------------------------------------------------------------------------




--------------------------------------- Iteration      1(  14)  ---------------------------------------


    POTLOK:  cpu time      0.0056: real time      0.0056
    SETDIJ:  cpu time      0.2442: real time      0.2441
     EDDAV:  cpu time      4.3301: real time      4.3291
       DOS:  cpu time      0.0023: real time      0.0023
    --------------------------------------------
      LOOP:  cpu time      4.5821: real time      4.5811

 eigenvalue-minimisations  :  5415
 total energy-change (2. order) : 0.8753029E-06  (-0.1686519E-07)
 number of electron      28.0000000 magnetization       4.4775028
 augmentation part       16.8415193 magnetization       3.5259165

 Free energy of the ion-electron system (eV)
  ---------------------------------------------------
  alpha Z        PSCENC =       212.97936214
  Ewald energy   TEWEN  =     -3583.81742277
  -Hartree energ DENC   =     -1108.03589450
  -exchange      EXHF   =         0.00000000
  -V(xc)+E(xc)   XCENC  =       140.73850477
  PAW double counting   =      4345.15386514    -4530.28784405
  entropy T*S    EENTRO =        -0.00045663
  eigenvalues    EBANDS =      -408.08790534
  atomic energy  EATOM  =      4914.83548677
  Solvation  Ediel_sol  =         0.00000000
  ---------------------------------------------------
  free energy    TOTEN  =       -16.52230446 eV

  energy without entropy =      -16.52184783  energy(sigma->0) =      -16.52215225


--------------------------------------------------------------------------------------------------------




 average (electrostatic) potential at core
  the test charge radii are     0.9500
  (the norm of the test charge is              1.0000)
       1 -73.9977       2 -73.9977
 
 
 
 E-fermi :   9.2567     XC(G=0): -13.4572     alpha+bet :-16.9476

 val. band max:        9.2534992067   @ k =   0.2188   0.1563   0.0938
 cond. band min:       9.2584327742   @ k =   0.1563   0.0938   0.0938
 fundamental gap:      0.0049335674
 Fermi energy:         9.2566743721

 spin component 1

 k-point     1 :       0.0313    0.0313    0.0313
  band No.  band energies     occupation 
      1     -44.8964      1.00000
      2     -44.8964      1.00000
      3     -44.8912      1.00000
      4     -44.6402      1.00000
      5     -44.6349      1.00000
      6     -44.6349      1.00000
      7       1.0785      1.00000
      8       4.6500      1.00000
      9       4.6500      1.00000
     10       7.0288      1.00000
     11       7.0288      1.00000
     12       7.0760      1.00000
     13       8.1786      1.00000
     14       8.1786      1.00000
     15       9.2516      0.54299
     16       9.3253      0.04500
     17       9.3253      0.04499
     18      18.7944      0.00000
     19      18.7944      0.00000
     20      18.8913      0.00000
     21      24.8337      0.00000

 k-point     2 :       0.0938    0.0313    0.0313
  band No.  band energies     occupation 
      1     -44.8986      1.00000
      2     -44.8911      1.00000
      3     -44.8831      1.00000
      4     -44.6520      1.00000
      5     -44.6396      1.00000
      6     -44.6369      1.00000
      7       1.2356      1.00000
      8       4.7149      1.00000
      9       4.7168      1.00000
     10       7.0053      1.00000
     11       7.0262      1.00000
     12       7.1402      1.00000
     13       8.1127      1.00000
     14       8.2061      1.00000
     15       9.0900      1.02002
     16       9.1981      0.91370
     17       9.3175      0.07651
     18      17.7795      0.00000
     19      19.0850      0.00000
     20      19.1591      0.00000
     21      24.8846      0.00000

 k-point     3 :       0.1563    0.0313    0.0313
  band No.  band energies     occupation 
      1     -44.8984      1.00000
      2     -44.8807      1.00000
      3     -44.8711      1.00000
      4     -44.6710      1.00000
      5     -44.6490      1.00000
      6     -44.6445      1.00000
      7       1.5442      1.00000
      8       4.8390      1.00000
      9       4.8425      1.00000
     10       6.9944      1.00000
     11       7.0245      1.00000
     12       7.2353      1.00000
     13       7.9836      1.00000
     14       8.2592      1.00000
     15       8.8497      1.00000
     16       8.9706      1.00020
     17       9.2469      0.58231
     18      16.3078      0.00000
     19      19.6370      0.00000
     20      19.7076      0.00000
     21      24.9898      0.00000

 k-point     4 :       0.2188    0.0313    0.0313
  band No.  band energies     occupation 
      1     -44.8955      1.00000
      2     -44.8658      1.00000
      3     -44.8555      1.00000
      4     -44.6962      1.00000
      5     -44.6626      1.00000
      6     -44.6569      1.00000
      7       1.9925      1.00000
      8       4.9931      1.00000
      9       5.0287      1.00000
     10       6.9995      1.00000
     11       7.0286      1.00000
     12       7.3625      1.00000
     13       7.7976      1.00000
     14       8.3357      1.00000
     15       8.5598      1.00000
     16       8.6830      1.00000
     17       9.1271      1.03475
     18      14.7437      0.00000
     19      20.4051      0.00000
     20      20.4754      0.00000
     21      25.1563      0.00000

 k-point     5 :       0.2813    0.0313    0.0313
  band No.  band energies     occupation 
      1     -44.8891      1.00000
      2     -44.8468      1.00000
      3     -44.8363      1.00000
      4     -44.7256      1.00000
      5     -44.6801      1.00000
      6     -44.6735      1.00000
      7       2.5597      1.00000
      8       5.1421      1.00000
      9       5.2671      1.00000
     10       7.0272      1.00000
     11       7.0409      1.00000
     12       7.5204      1.00000
     13       7.5683      1.00000
     14       8.2540      1.00000
     15       8.3741      1.00000
     16       8.4374      1.00000
     17       8.9684      1.00018
     18      13.2317      0.00000
     19      21.3414      0.00000
     20      21.4186      0.00000
     21      25.3957      0.00000

 k-point     6 :       0.3438    0.0313    0.0313
  band No.  band energies     occupation 
      1     -44.8785      1.00000
      2     -44.8247      1.00000
      3     -44.8144      1.00000
      4     -44.7571      1.00000
      5     -44.7008      1.00000
      6     -44.6934      1.00000
      7       3.2110      1.00000
      8       5.2326      1.00000
      9       5.5492      1.00000
     10       7.0305      1.00000
     11       7.0853      1.00000
     12       7.3454      1.00000
     13       7.7048      1.00000
     14       7.9614      1.00000
     15       8.0742      1.00000
     16       8.5778      1.00000
     17       8.7801      1.00000
     18      11.8531      0.00000
     19      22.4001      0.00000
     20      22.4990      0.00000
     21      25.7263      0.00000

 k-point     7 :       0.4063    0.0313    0.0313
  band No.  band energies     occupation 
      1     -44.8630      1.00000
      2     -44.8004      1.00000
      3     -44.7904      1.00000
      4     -44.7883      1.00000
      5     -44.7241      1.00000
      6     -44.7159      1.00000
      7       3.8891      1.00000
      8       5.1956      1.00000
      9       5.8642      1.00000
     10       6.8480      1.00000
     11       7.1800      1.00000
     12       7.2985      1.00000
     13       7.7026      1.00000
     14       7.8045      1.00000
     15       7.9097      1.00000
     16       8.5711      1.00000
     17       8.7946      1.00000
     18      10.6782     -0.00000
     19      23.5331      0.00000
     20      23.6851      0.00000
     21      26.1772      0.00000

 k-point     8 :       0.4688    0.0313    0.0313
  band No.  band energies     occupation 
      1     -44.8426      1.00000
      2     -44.8173      1.00000
      3     -44.7748      1.00000
      4     -44.7654      1.00000
      5     -44.7491      1.00000
      6     -44.7402      1.00000
      7       4.5065      1.00000
      8       4.9614      1.00000
      9       6.1989      1.00000
     10       6.5366      1.00000
     11       7.3138      1.00000
     12       7.4043      1.00000
     13       7.4870      1.00000
     14       7.5782      1.00000
     15       8.1275      1.00000
     16       8.3506      1.00000
     17       9.1616      1.01924
     18       9.7723     -0.00000
     19      24.6795      0.00000
     20      24.9511      0.00000
     21      25.7673      0.00000

 k-point     9 :       0.0938    0.0938    0.0313
  band No.  band energies     occupation 
      1     -44.9039      1.00000
      2     -44.8878      1.00000
      3     -44.8704      1.00000
      4     -44.6681      1.00000
      5     -44.6435      1.00000
      6     -44.6349      1.00000
      7       1.3906      1.00000
      8       4.7758      1.00000
      9       4.7856      1.00000
     10       6.9457      1.00000
     11       7.0117      1.00000
     12       7.2452      1.00000
     13       8.1053      1.00000
     14       8.1874      1.00000
     15       8.8769      1.00000
     16       9.1032      1.02610
     17       9.3441     -0.00676
     18      17.8135      0.00000
     19      18.2894      0.00000
     20      19.4043      0.00000
     21      25.2543      0.00000

 k-point    10 :       0.1563    0.0938    0.0313
  band No.  band energies     occupation 
      1     -44.9081      1.00000
      2     -44.8779      1.00000
      3     -44.8546      1.00000
      4     -44.6911      1.00000
      5     -44.6525      1.00000
      6     -44.6377      1.00000
      7       1.6947      1.00000
      8       4.8913      1.00000
      9       4.9154      1.00000
     10       6.8943      1.00000
     11       6.9968      1.00000
     12       7.3796      1.00000
     13       8.0122      1.00000
     14       8.2281      1.00000
     15       8.6022      1.00000
     16       8.8838      1.00000
     17       9.3279      0.03584
     18      16.4959      0.00000
     19      18.6206      0.00000
     20      19.9285      0.00000
     21      25.4443      0.00000

 k-point    11 :       0.2188    0.0938    0.0313
  band No.  band energies     occupation 
      1     -44.9092      1.00000
      2     -44.8633      1.00000
      3     -44.8360      1.00000
      4     -44.7191      1.00000
      5     -44.6656      1.00000
      6     -44.6460      1.00000
      7       2.1353      1.00000
      8       5.0449      1.00000
      9       5.0941      1.00000
     10       6.8657      1.00000
     11       6.9812      1.00000
     12       7.5380      1.00000
     13       7.8611      1.00000
     14       8.2976      1.00000
     15       8.3058      1.00000
     16       8.6054      1.00000
     17       9.2519      0.54042
     18      14.9315      0.00000
     19      19.3004      0.00000
     20      20.6668      0.00000
     21      25.6442      0.00000

 k-point    12 :       0.2813    0.0938    0.0313
  band No.  band energies     occupation 
      1     -44.9062      1.00000
      2     -44.8448      1.00000
      3     -44.8150      1.00000
      4     -44.7503      1.00000
      5     -44.6825      1.00000
      6     -44.6592      1.00000
      7       2.6904      1.00000
      8       5.1943      1.00000
      9       5.3181      1.00000
     10       6.8653      1.00000
     11       6.9607      1.00000
     12       7.6844      1.00000
     13       7.7201      1.00000
     14       7.9924      1.00000
     15       8.3126      1.00000
     16       8.4095      1.00000
     17       9.1251      1.03433
     18      13.4096      0.00000
     19      20.1314      0.00000
     20      21.5782      0.00000
     21      25.9093      0.00000

 k-point    13 :       0.3438    0.0938    0.0313
  band No.  band energies     occupation 
      1     -44.8983      1.00000
      2     -44.8233      1.00000
      3     -44.7922      1.00000
      4     -44.7826      1.00000
      5     -44.7026      1.00000
      6     -44.6764      1.00000
      7       3.3234      1.00000
      8       5.2802      1.00000
      9       5.5826      1.00000
     10       6.8727      1.00000
     11       6.9289      1.00000
     12       7.5381      1.00000
     13       7.7115      1.00000
     14       7.9184      1.00000
     15       8.0412      1.00000
     16       8.5535      1.00000
     17       8.9591      1.00011
     18      12.0128      0.00000
     19      21.0669      0.00000
     20      22.6238      0.00000
     21      26.2652      0.00000

 k-point    14 :       0.4063    0.0938    0.0313
  band No.  band energies     occupation 
      1     -44.8851      1.00000
      2     -44.8138      1.00000
      3     -44.7995      1.00000
      4     -44.7681      1.00000
      5     -44.7252      1.00000
      6     -44.6968      1.00000
      7       3.9763      1.00000
      8       5.2356      1.00000
      9       5.8756      1.00000
     10       6.7292      1.00000
     11       6.9916      1.00000
     12       7.4699      1.00000
     13       7.4900      1.00000
     14       7.8179      1.00000
     15       8.1288      1.00000
     16       8.7658      1.00000
     17       8.7848      1.00000
     18      10.8061     -0.00000
     19      22.0752      0.00000
     20      23.7673      0.00000
     21      25.3606      0.00000

 k-point    15 :       0.4688    0.0938    0.0313
  band No.  band energies     occupation 
      1     -44.8663      1.00000
      2     -44.8422      1.00000
      3     -44.7746      1.00000
      4     -44.7495      1.00000
      5     -44.7436      1.00000
      6     -44.7195      1.00000
      7       4.5657      1.00000
      8       5.0022      1.00000
      9       6.1814      1.00000
     10       6.4778      1.00000
     11       7.1103      1.00000
     12       7.2703      1.00000
     13       7.5426      1.00000
     14       7.6540      1.00000
     15       8.3427      1.00000
     16       8.5568      1.00000
     17       9.1885      0.95340
     18       9.8523     -0.00000
     19      23.1346      0.00000
     20      24.2318      0.00000
     21      24.9727      0.00000

 k-point    16 :       0.1563    0.1563    0.0313
  band No.  band energies     occupation 
      1     -44.9176      1.00000
      2     -44.8689      1.00000
      3     -44.8347      1.00000
      4     -44.7182      1.00000
      5     -44.6607      1.00000
      6     -44.6348      1.00000
      7       1.9890      1.00000
      8       4.9856      1.00000
      9       5.0568      1.00000
     10       6.7955      1.00000
     11       6.9624      1.00000
     12       7.5581      1.00000
     13       8.0244      1.00000
     14       8.2051      1.00000
     15       8.3007      1.00000
     16       8.6771      1.00000
     17       9.3789     -0.03546
     18      16.4491      0.00000
     19      17.6092      0.00000
     20      20.4098      0.00000
     21      25.7076      0.00000

 k-point    17 :       0.2188    0.1563    0.0313
  band No.  band energies     occupation 
      1     -44.9239      1.00000
      2     -44.8553      1.00000
      3     -44.8130      1.00000
      4     -44.7494      1.00000
      5     -44.6727      1.00000
      6     -44.6376      1.00000
      7       2.4126      1.00000
      8       5.1090      1.00000
      9       5.2482      1.00000
     10       6.7224      1.00000
     11       6.9266      1.00000
     12       7.7551      1.00000
     13       7.9527      1.00000
     14       7.9838      1.00000
     15       8.2571      1.00000
     16       8.4214      1.00000
     17       9.3669     -0.03275
     18      15.1899      0.00000
     19      17.9072      0.00000
     20      21.0963      0.00000
     21      25.9129      0.00000

 k-point    18 :       0.2813    0.1563    0.0313
  band No.  band energies     occupation 
      1     -44.9257      1.00000
      2     -44.8381      1.00000
      3     -44.7898      1.00000
      4     -44.7827      1.00000
      5     -44.6882      1.00000
      6     -44.6459      1.00000
      7       2.9400      1.00000
      8       5.2302      1.00000
      9       5.4722      1.00000
     10       6.6828      1.00000
     11       6.8894      1.00000
     12       7.6791      1.00000
     13       7.8405      1.00000
     14       7.9685      1.00000
     15       8.1696      1.00000
     16       8.3578      1.00000
     17       9.2938      0.20867
     18      13.6935      0.00000
     19      18.6252      0.00000
     20      21.9543      0.00000
     21      26.1576      0.00000

 k-point    19 :       0.3438    0.1563    0.0313
  band No.  band energies     occupation 
      1     -44.9221      1.00000
      2     -44.8181      1.00000
      3     -44.8160      1.00000
      4     -44.7658      1.00000
      5     -44.7066      1.00000
      6     -44.6588      1.00000
      7       3.5305      1.00000
      8       5.2954      1.00000
      9       5.7175      1.00000
     10       6.6787      1.00000
     11       6.8326      1.00000
     12       7.4066      1.00000
     13       7.7539      1.00000
     14       7.9653      1.00000
     15       8.1864      1.00000
     16       8.5071      1.00000
     17       9.1690      1.00713
     18      12.2786      0.00000
     19      19.4796      0.00000
     20      22.9490      0.00000
     21      24.9379      0.00000

 k-point    20 :       0.4063    0.1563    0.0313
  band No.  band energies     occupation 
      1     -44.9124      1.00000
      2     -44.8471      1.00000
      3     -44.7961      1.00000
      4     -44.7416      1.00000
      5     -44.7274      1.00000
      6     -44.6757      1.00000
      7       4.1233      1.00000
      8       5.2414      1.00000
      9       5.9770      1.00000
     10       6.6560      1.00000
     11       6.7777      1.00000
     12       7.1762      1.00000
     13       7.7277      1.00000
     14       7.8357      1.00000
     15       8.3985      1.00000
     16       8.7706      1.00000
     17       9.0042      1.00104
     18      11.0256     -0.00000
     19      20.4252      0.00000
     20      23.7043      0.00000
     21      24.0445      0.00000

 k-point    21 :       0.4688    0.1563    0.0313
  band No.  band energies     occupation 
      1     -44.8964      1.00000
      2     -44.8744      1.00000
      3     -44.7730      1.00000
      4     -44.7498      1.00000
      5     -44.7180      1.00000
      6     -44.6958      1.00000
      7       4.6434      1.00000
      8       5.0263      1.00000
      9       6.2385      1.00000
     10       6.4799      1.00000
     11       6.8513      1.00000
     12       6.9902      1.00000
     13       7.7448      1.00000
     14       7.7744      1.00000
     15       8.6057      1.00000
     16       8.8118      1.00000
     17       9.2450      0.59833
     18       9.9973     -0.00000
     19      21.4469      0.00000
     20      22.5402      0.00000
     21      25.2015      0.00000

 k-point    22 :       0.2188    0.2188    0.0313
  band No.  band energies     occupation 
      1     -44.9356      1.00000
      2     -44.8433      1.00000
      3     -44.7886      1.00000
      4     -44.7831      1.00000
      5     -44.6831      1.00000
      6     -44.6347      1.00000
      7       2.8057      1.00000
      8       5.1802      1.00000
      9       5.4630      1.00000
     10       6.6051      1.00000
     11       6.8876      1.00000
     12       7.6640      1.00000
     13       7.9827      1.00000
     14       8.0169      1.00000
     15       8.2071      1.00000
     16       8.2324      1.00000
     17       9.4238     -0.01983
     18      15.0056      0.00000
     19      17.0605      0.00000
     20      21.7171      0.00000
     21      26.1088      0.00000

 k-point    23 :       0.2813    0.2188    0.0313
  band No.  band energies     occupation 
      1     -44.9427      1.00000
      2     -44.8281      1.00000
      3     -44.8178      1.00000
      4     -44.7639      1.00000
      5     -44.6965      1.00000
      6     -44.6375      1.00000
      7       3.2827      1.00000
      8       5.2348      1.00000
      9       5.7130      1.00000
     10       6.5248      1.00000
     11       6.8753      1.00000
     12       7.3641      1.00000
     13       7.9859      1.00000
     14       8.0208      1.00000
     15       8.2272      1.00000
     16       8.2966      1.00000
     17       9.4146     -0.02405
     18      13.8955      0.00000
     19      17.3176      0.00000
     20      22.5037      0.00000
     21      24.7184      0.00000

 k-point    24 :       0.3438    0.2188    0.0313
  band No.  band energies     occupation 
      1     -44.9439      1.00000
      2     -44.8513      1.00000
      3     -44.8104      1.00000
      4     -44.7395      1.00000
      5     -44.7126      1.00000
      6     -44.6455      1.00000
      7       3.7947      1.00000
      8       5.2381      1.00000
      9       5.9743      1.00000
     10       6.4880      1.00000
     11       6.8718      1.00000
     12       7.1008      1.00000
     13       7.9052      1.00000
     14       7.9497      1.00000
     15       8.4061      1.00000
     16       8.4953      1.00000
     17       9.3435     -0.00558
     18      12.5468      0.00000
     19      18.0216      0.00000
     20      23.3724      0.00000
     21      23.4262      0.00000

 k-point    25 :       0.4063    0.2188    0.0313
  band No.  band energies     occupation 
      1     -44.9386      1.00000
      2     -44.8816      1.00000
      3     -44.7909      1.00000
      4     -44.7307      1.00000
      5     -44.7159      1.00000
      6     -44.6580      1.00000
      7       4.2794      1.00000
      8       5.1574      1.00000
      9       6.2271      1.00000
     10       6.4971      1.00000
     11       6.8256      1.00000
     12       6.8843      1.00000
     13       7.8739      1.00000
     14       7.9475      1.00000
     15       8.6052      1.00000
     16       8.8067      1.00000
     17       9.2190      0.79484
     18      11.2733      0.00000
     19      18.8902      0.00000
     20      22.1120      0.00000
     21      24.4495      0.00000

 k-point    26 :       0.4688    0.2188    0.0313
  band No.  band energies     occupation 
      1     -44.9262      1.00000
      2     -44.9070      1.00000
      3     -44.7706      1.00000
      4     -44.7503      1.00000
      5     -44.6940      1.00000
      6     -44.6745      1.00000
      7       4.6812      1.00000
      8       4.9742      1.00000
      9       6.4487      1.00000
     10       6.5366      1.00000
     11       6.7194      1.00000
     12       6.7281      1.00000
     13       7.9013      1.00000
     14       7.9382      1.00000
     15       8.8423      1.00000
     16       9.0499      1.00638
     17       9.3359      0.01186
     18      10.1769     -0.00000
     19      19.8682      0.00000
     20      20.9431      0.00000
     21      25.5289      0.00000

 k-point    27 :       0.2813    0.2813    0.0313
  band No.  band energies     occupation 
      1     -44.9551      1.00000
      2     -44.8529      1.00000
      3     -44.8154      1.00000
      4     -44.7386      1.00000
      5     -44.7074      1.00000
      6     -44.6347      1.00000
      7       3.6757      1.00000
      8       5.2057      1.00000
      9       6.0019      1.00000
     10       6.4055      1.00000
     11       6.9457      1.00000
     12       7.0721      1.00000
     13       7.9191      1.00000
     14       8.0774      1.00000
     15       8.2677      1.00000
     16       8.4877      1.00000
     17       9.4707     -0.00496
     18      13.5892      0.00000
     19      16.6940      0.00000
     20      23.2072      0.00000
     21      23.2611      0.00000

 k-point    28 :       0.3438    0.2813    0.0313
  band No.  band energies     occupation 
      1     -44.9615      1.00000
      2     -44.8857      1.00000
      3     -44.8006      1.00000
      4     -44.7203      1.00000
      5     -44.7147      1.00000
      6     -44.6373      1.00000
      7       4.0630      1.00000
      8       5.1343      1.00000
      9       6.3051      1.00000
     10       6.3331      1.00000
     11       6.8194      1.00000
     12       7.0779      1.00000
     13       7.8917      1.00000
     14       8.1014      1.00000
     15       8.3475      1.00000
     16       8.7429      1.00000
     17       9.4596     -0.00725
     18      12.6264      0.00000
     19      16.9263      0.00000
     20      21.8953      0.00000
     21      24.0390      0.00000

 k-point    29 :       0.4063    0.2813    0.0313
  band No.  band energies     occupation 
      1     -44.9608      1.00000
      2     -44.9143      1.00000
      3     -44.7845      1.00000
      4     -44.7351      1.00000
      5     -44.6927      1.00000
      6     -44.6450      1.00000
      7       4.3962      1.00000
      8       5.0190      1.00000
      9       6.3138      1.00000
     10       6.5519      1.00000
     11       6.6578      1.00000
     12       7.1461      1.00000
     13       7.9345      1.00000
     14       8.1213      1.00000
     15       8.6095      1.00000
     16       9.0102      1.00135
     17       9.3843     -0.03508
     18      11.4536      0.00000
     19      17.5951      0.00000
     20      20.6356      0.00000
     21      24.9619      0.00000

 k-point    30 :       0.4688    0.2813    0.0313
  band No.  band energies     occupation 
      1     -44.9527      1.00000
      2     -44.9370      1.00000
      3     -44.7678      1.00000
      4     -44.7511      1.00000
      5     -44.6733      1.00000
      6     -44.6572      1.00000
      7       4.6588      1.00000
      8       4.8618      1.00000
      9       6.3509      1.00000
     10       6.4447      1.00000
     11       6.8677      1.00000
     12       7.0601      1.00000
     13       8.0161      1.00000
     14       8.0921      1.00000
     15       9.0144      1.00162
     16       9.2459      0.59078
     17       9.4635     -0.00637
     18      10.3449     -0.00000
     19      18.4715      0.00000
     20      19.4913      0.00000
     21      25.9199      0.00000

 k-point    31 :       0.3438    0.3438    0.0313
  band No.  band energies     occupation 
      1     -44.9730      1.00000
      2     -44.9168      1.00000
      3     -44.7894      1.00000
      4     -44.7297      1.00000
      5     -44.6922      1.00000
      6     -44.6346      1.00000
      7       4.2898      1.00000
      8       5.0063      1.00000
      9       6.2264      1.00000
     10       6.5778      1.00000
     11       6.6660      1.00000
     12       7.4346      1.00000
     13       7.9313      1.00000
     14       8.1958      1.00000
     15       8.3063      1.00000
     16       8.9951      1.00068
     17       9.5084     -0.00107
     18      12.2516      0.00000
     19      16.4779      0.00000
     20      20.5334      0.00000
     21      24.7605      0.00000

 k-point    32 :       0.4063    0.3438    0.0313
  band No.  band energies     occupation 
      1     -44.9774      1.00000
      2     -44.9428      1.00000
      3     -44.7772      1.00000
      4     -44.7405      1.00000
      5     -44.6727      1.00000
      6     -44.6372      1.00000
      7       4.4644      1.00000
      8       4.8706      1.00000
      9       6.1751      1.00000
     10       6.3876      1.00000
     11       7.0173      1.00000
     12       7.6650      1.00000
     13       8.0125      1.00000
     14       8.2382      1.00000
     15       8.5412      1.00000
     16       9.2423      0.61990
     17       9.4863     -0.00274
     18      11.4237      0.00000
     19      16.7000      0.00000
     20      19.3058      0.00000
     21      25.5445      0.00000

 k-point    33 :       0.4688    0.3438    0.0313
  band No.  band energies     occupation 
      1     -44.9738      1.00000
      2     -44.9621      1.00000
      3     -44.7647      1.00000
      4     -44.7523      1.00000
      5     -44.6567      1.00000
      6     -44.6447      1.00000
      7       4.6059      1.00000
      8       4.7372      1.00000
      9       6.1840      1.00000
     10       6.2550      1.00000
     11       7.3263      1.00000
     12       7.5643      1.00000
     13       8.1117      1.00000
     14       8.1974      1.00000
     15       9.1063      1.02750
     16       9.3830     -0.03524
     17       9.6151     -0.00000
     18      10.4400     -0.00000
     19      17.3408      0.00000
     20      18.2317      0.00000
     21      26.3157      0.00000

 k-point    34 :       0.4063    0.4063    0.0313
  band No.  band energies     occupation 
      1     -44.9867      1.00000
      2     -44.9655      1.00000
      3     -44.7695      1.00000
      4     -44.7468      1.00000
      5     -44.6565      1.00000
      6     -44.6346      1.00000
      7       4.5090      1.00000
      8       4.7378      1.00000
      9       6.0925      1.00000
     10       6.2216      1.00000
     11       7.4326      1.00000
     12       8.0990      1.00000
     13       8.1155      1.00000
     14       8.3401      1.00000
     15       8.5810      1.00000
     16       9.4669     -0.00567
     17       9.5141     -0.00083
     18      11.0513     -0.00000
     19      16.3655      0.00000
     20      18.1547      0.00000
     21      26.1316      0.00000

 k-point    35 :       0.4688    0.4063    0.0313
  band No.  band energies     occupation 
      1     -44.9880      1.00000
      2     -44.9808      1.00000
      3     -44.7616      1.00000
      4     -44.7539      1.00000
      5     -44.6445      1.00000
      6     -44.6371      1.00000
      7       4.5591      1.00000
      8       4.6331      1.00000
      9       6.0715      1.00000
     10       6.1148      1.00000
     11       7.7994      1.00000
     12       8.0642      1.00000
     13       8.1845      1.00000
     14       8.2660      1.00000
     15       9.1424      1.03430
     16       9.4426     -0.01228
     17       9.7756     -0.00000
     18      10.3963     -0.00000
     19      16.5885      0.00000
     20      17.2256      0.00000
     21      26.6413      0.00000

 k-point    36 :       0.4688    0.4688    0.0313
  band No.  band energies     occupation 
      1     -44.9941      1.00000
      2     -44.9917      1.00000
      3     -44.7586      1.00000
      4     -44.7561      1.00000
      5     -44.6371      1.00000
      6     -44.6346      1.00000
      7       4.5421      1.00000
      8       4.5660      1.00000
      9       6.0211      1.00000
     10       6.0356      1.00000
     11       8.1888      1.00000
     12       8.2316      1.00000
     13       8.2401      1.00000
     14       8.3599      1.00000
     15       9.2370      0.66327
     16       9.3942     -0.03264
     17       9.9617     -0.00000
     18      10.2000     -0.00000
     19      16.3196      0.00000
     20      16.5556      0.00000
     21      26.8657      0.00000

 k-point    37 :       0.0938    0.0938    0.0938
  band No.  band energies     occupation 
      1     -44.8984      1.00000
      2     -44.8984      1.00000
      3     -44.8550      1.00000
      4     -44.6843      1.00000
      5     -44.6397      1.00000
      6     -44.6397      1.00000
      7       1.5437      1.00000
      8       4.8448      1.00000
      9       4.8448      1.00000
     10       6.9328      1.00000
     11       6.9328      1.00000
     12       7.3633      1.00000
     13       8.1377      1.00000
     14       8.1377      1.00000
     15       8.6217      1.00000
     16       9.2173      0.80660
     17       9.2173      0.80658
     18      18.0802      0.00000
     19      18.0802      0.00000
     20      18.7724      0.00000
     21      26.1747      0.00000

 k-point    38 :       0.1563    0.0938    0.0938
  band No.  band energies     occupation 
      1     -44.9068      1.00000
      2     -44.8878      1.00000
      3     -44.8369      1.00000
      4     -44.7083      1.00000
      5     -44.6494      1.00000
      6     -44.6399      1.00000
      7       1.8439      1.00000
      8       4.9609      1.00000
      9       4.9706      1.00000
     10       6.8594      1.00000
     11       6.9088      1.00000
     12       7.5203      1.00000
     13       8.0421      1.00000
     14       8.1979      1.00000
     15       8.3192      1.00000
     16       8.9922      1.00059
     17       9.2584      0.48512
     18      16.6978      0.00000
     19      18.5818      0.00000
     20      19.1036      0.00000
     21      26.3360      0.00000

 k-point    39 :       0.2188    0.0938    0.0938
  band No.  band energies     occupation 
      1     -44.9116      1.00000
      2     -44.8724      1.00000
      3     -44.8169      1.00000
      4     -44.7369      1.00000
      5     -44.6634      1.00000
      6     -44.6450      1.00000
      7       2.2777      1.00000
      8       5.1277      1.00000
      9       5.1293      1.00000
     10       6.8145      1.00000
     11       6.8749      1.00000
     12       7.7016      1.00000
     13       7.9101      1.00000
     14       8.0043      1.00000
     15       8.2805      1.00000
     16       8.7109      1.00000
     17       9.2279      0.73271
     18      15.1265      0.00000
     19      19.2697      0.00000
     20      19.7277      0.00000
     21      26.5890      0.00000

 k-point    40 :       0.2813    0.0938    0.0938
  band No.  band energies     occupation 
      1     -44.9119      1.00000
      2     -44.8529      1.00000
      3     -44.7954      1.00000
      4     -44.7682      1.00000
      5     -44.6814      1.00000
      6     -44.6549      1.00000
      7       2.8219      1.00000
      8       5.2746      1.00000
      9       5.3428      1.00000
     10       6.8091      1.00000
     11       6.8266      1.00000
     12       7.7090      1.00000
     13       7.7608      1.00000
     14       7.9028      1.00000
     15       8.3865      1.00000
     16       8.4138      1.00000
     17       9.1367      1.03536
     18      13.5972      0.00000
     19      20.0944      0.00000
     20      20.5136      0.00000
     21      26.9461      0.00000

 k-point    41 :       0.3438    0.0938    0.0938
  band No.  band energies     occupation 
      1     -44.9071      1.00000
      2     -44.8302      1.00000
      3     -44.8001      1.00000
      4     -44.7730      1.00000
      5     -44.7027      1.00000
      6     -44.6688      1.00000
      7       3.4386      1.00000
      8       5.3530      1.00000
      9       5.5915      1.00000
     10       6.7465      1.00000
     11       6.8500      1.00000
     12       7.4634      1.00000
     13       7.6291      1.00000
     14       8.1119      1.00000
     15       8.1325      1.00000
     16       8.5398      1.00000
     17       8.9989      1.00081
     18      12.1898      0.00000
     19      21.0130      0.00000
     20      21.4234      0.00000
     21      26.2494      0.00000

 k-point    42 :       0.4063    0.0938    0.0938
  band No.  band energies     occupation 
      1     -44.8964      1.00000
      2     -44.8305      1.00000
      3     -44.8052      1.00000
      4     -44.7501      1.00000
      5     -44.7267      1.00000
      6     -44.6861      1.00000
      7       4.0691      1.00000
      8       5.2965      1.00000
      9       5.8624      1.00000
     10       6.6062      1.00000
     11       6.9349      1.00000
     12       7.2851      1.00000
     13       7.5623      1.00000
     14       7.8900      1.00000
     15       8.3026      1.00000
     16       8.8071      1.00000
     17       8.8302      1.00000
     18      10.9650     -0.00000
     19      21.9918      0.00000
     20      22.4345      0.00000
     21      25.1284      0.00000

 k-point    43 :       0.4688    0.0938    0.0938
  band No.  band energies     occupation 
      1     -44.8798      1.00000
      2     -44.8575      1.00000
      3     -44.7789      1.00000
      4     -44.7524      1.00000
      5     -44.7275      1.00000
      6     -44.7059      1.00000
      7       4.6346      1.00000
      8       5.0581      1.00000
      9       6.1384      1.00000
     10       6.3961      1.00000
     11       7.0453      1.00000
     12       7.1585      1.00000
     13       7.5890      1.00000
     14       7.7037      1.00000
     15       8.4733      1.00000
     16       8.6491      1.00000
     17       9.2676      0.40837
     18       9.9799     -0.00000
     19      23.0081      0.00000
     20      23.5350      0.00000
     21      24.0525      0.00000

 k-point    44 :       0.1563    0.1563    0.0938
  band No.  band energies     occupation 
      1     -44.9119      1.00000
      2     -44.8847      1.00000
      3     -44.8164      1.00000
      4     -44.7338      1.00000
      5     -44.6551      1.00000
      6     -44.6400      1.00000
      7       2.1353      1.00000
      8       5.0609      1.00000
      9       5.1047      1.00000
     10       6.7713      1.00000
     11       6.8519      1.00000
     12       7.7108      1.00000
     13       7.9982      1.00000
     14       8.0587      1.00000
     15       8.1769      1.00000
     16       8.8798      1.00000
     17       9.2510      0.54755
     18      16.7063      0.00000
     19      17.6713      0.00000
     20      19.3485      0.00000
     21      26.8788      0.00000

 k-point    45 :       0.2188    0.1563    0.0938
  band No.  band energies     occupation 
      1     -44.9195      1.00000
      2     -44.8712      1.00000
      3     -44.7947      1.00000
      4     -44.7637      1.00000
      5     -44.6679      1.00000
      6     -44.6418      1.00000
      7       2.5539      1.00000
      8       5.1916      1.00000
      9       5.2847      1.00000
     10       6.6925      1.00000
     11       6.8040      1.00000
     12       7.6798      1.00000
     13       7.9236      1.00000
     14       7.9885      1.00000
     15       8.2389      1.00000
     16       8.6333      1.00000
     17       9.2535      0.52686
     18      15.4108      0.00000
     19      18.0059      0.00000
     20      19.9313      0.00000
     21      27.1901      0.00000

 k-point    46 :       0.2813    0.1563    0.0938
  band No.  band energies     occupation 
      1     -44.9236      1.00000
      2     -44.8525      1.00000
      3     -44.7955      1.00000
      4     -44.7725      1.00000
      5     -44.6851      1.00000
      6     -44.6479      1.00000
      7       3.0732      1.00000
      8       5.3254      1.00000
      9       5.4850      1.00000
     10       6.6453      1.00000
     11       6.7588      1.00000
     12       7.3983      1.00000
     13       7.8807      1.00000
     14       8.1546      1.00000
     15       8.3458      1.00000
     16       8.3651      1.00000
     17       9.2023      0.89317
     18      13.9029      0.00000
     19      18.7272      0.00000
     20      20.6718      0.00000
     21      26.2654      0.00000

 k-point    47 :       0.3438    0.1563    0.0938
  band No.  band energies     occupation 
      1     -44.9224      1.00000
      2     -44.8303      1.00000
      3     -44.8272      1.00000
      4     -44.7502      1.00000
      5     -44.7057      1.00000
      6     -44.6581      1.00000
      7       3.6511      1.00000
      8       5.3970      1.00000
      9       5.6980      1.00000
     10       6.6015      1.00000
     11       6.7438      1.00000
     12       7.1857      1.00000
     13       7.7874      1.00000
     14       8.1222      1.00000
     15       8.3416      1.00000
     16       8.5464      1.00000
     17       9.0970      1.02323
     18      12.4858      0.00000
     19      19.5752      0.00000
     20      21.5319      0.00000
     21      24.9811      0.00000

 k-point    48 :       0.4063    0.1563    0.0938
  band No.  band energies     occupation 
      1     -44.9153      1.00000
      2     -44.8565      1.00000
      3     -44.8058      1.00000
      4     -44.7290      1.00000
      5     -44.7285      1.00000
      6     -44.6719      1.00000
      7       4.2268      1.00000
      8       5.3335      1.00000
      9       5.9234      1.00000
     10       6.5051      1.00000
     11       6.7929      1.00000
     12       7.0520      1.00000
     13       7.7381      1.00000
     14       7.9333      1.00000
     15       8.4709      1.00000
     16       8.9032      1.00000
     17       8.9498      1.00006
     18      11.2334     -0.00000
     19      20.5119      0.00000
     20      22.4862      0.00000
     21      23.7610      0.00000

 k-point    49 :       0.4688    0.1563    0.0938
  band No.  band energies     occupation 
      1     -44.9016      1.00000
      2     -44.8818      1.00000
      3     -44.7800      1.00000
      4     -44.7541      1.00000
      5     -44.7077      1.00000
      6     -44.6886      1.00000
      7       4.7302      1.00000
      8       5.1080      1.00000
      9       6.1479      1.00000
     10       6.3492      1.00000
     11       6.8773      1.00000
     12       6.9632      1.00000
     13       7.7478      1.00000
     14       7.8110      1.00000
     15       8.6125      1.00000
     16       8.7796      1.00000
     17       9.4339     -0.01551
     18      10.2037     -0.00000
     19      21.5244      0.00000
     20      22.6081      0.00000
     21      23.5196      0.00000

 k-point    50 :       0.2188    0.2188    0.0938
  band No.  band energies     occupation 
      1     -44.9296      1.00000
      2     -44.8604      1.00000
      3     -44.7946      1.00000
      4     -44.7720      1.00000
      5     -44.6786      1.00000
      6     -44.6402      1.00000
      7       2.9449      1.00000
      8       5.2680      1.00000
      9       5.4939      1.00000
     10       6.5754      1.00000
     11       6.7565      1.00000
     12       7.3689      1.00000
     13       8.0348      1.00000
     14       8.1759      1.00000
     15       8.2214      1.00000
     16       8.4384      1.00000
     17       9.2903      0.23270
     18      15.2723      0.00000
     19      17.1188      0.00000
     20      20.4558      0.00000
     21      26.1976      0.00000

 k-point    51 :       0.2813    0.2188    0.0938
  band No.  band energies     occupation 
      1     -44.9372      1.00000
      2     -44.8440      1.00000
      3     -44.8268      1.00000
      4     -44.7494      1.00000
      5     -44.6934      1.00000
      6     -44.6424      1.00000
      7       3.4178      1.00000
      8       5.3312      1.00000
      9       5.7271      1.00000
     10       6.4928      1.00000
     11       6.7337      1.00000
     12       7.1060      1.00000
     13       8.0046      1.00000
     14       8.2286      1.00000
     15       8.2835      1.00000
     16       8.4422      1.00000
     17       9.2813      0.29870
     18      14.1481      0.00000
     19      17.3922      0.00000
     20      21.1311      0.00000
     21      24.7929      0.00000

 k-point    52 :       0.3438    0.2188    0.0938
  band No.  band energies     occupation 
      1     -44.9399      1.00000
      2     -44.8579      1.00000
      3     -44.8240      1.00000
      4     -44.7277      1.00000
      5     -44.7115      1.00000
      6     -44.6487      1.00000
      7       3.9223      1.00000
      8       5.3409      1.00000
      9       5.9523      1.00000
     10       6.4433      1.00000
     11       6.7426      1.00000
     12       6.9206      1.00000
     13       7.9535      1.00000
     14       8.0611      1.00000
     15       8.3853      1.00000
     16       8.7433      1.00000
     17       9.2123      0.83739
     18      12.7971      0.00000
     19      18.1054      0.00000
     20      21.9276      0.00000
     21      23.4522      0.00000

 k-point    53 :       0.4063    0.2188    0.0938
  band No.  band energies     occupation 
      1     -44.9363      1.00000
      2     -44.8859      1.00000
      3     -44.8017      1.00000
      4     -44.7323      1.00000
      5     -44.7073      1.00000
      6     -44.6588      1.00000
      7       4.3953      1.00000
      8       5.2591      1.00000
      9       6.1438      1.00000
     10       6.4111      1.00000
     11       6.7672      1.00000
     12       6.8210      1.00000
     13       7.9307      1.00000
     14       7.9646      1.00000
     15       8.5202      1.00000
     16       9.0856      1.01808
     17       9.1228      1.03375
     18      11.5396      0.00000
     19      18.9750      0.00000
     20      22.1938      0.00000
     21      22.8238      0.00000

 k-point    54 :       0.4688    0.2188    0.0938
  band No.  band energies     occupation 
      1     -44.9261      1.00000
      2     -44.9090      1.00000
      3     -44.7783      1.00000
      4     -44.7548      1.00000
      5     -44.6887      1.00000
      6     -44.6723      1.00000
      7       4.7853      1.00000
      8       5.0733      1.00000
      9       6.2854      1.00000
     10       6.3694      1.00000
     11       6.7782      1.00000
     12       6.7844      1.00000
     13       7.9301      1.00000
     14       7.9332      1.00000
     15       8.7055      1.00000
     16       8.9096      1.00001
     17       9.6706     -0.00000
     18      10.4760     -0.00000
     19      19.9521      0.00000
     20      21.0260      0.00000
     21      23.8049      0.00000

 k-point    55 :       0.2813    0.2813    0.0938
  band No.  band energies     occupation 
      1     -44.9486      1.00000
      2     -44.8586      1.00000
      3     -44.8304      1.00000
      4     -44.7273      1.00000
      5     -44.7052      1.00000
      6     -44.6405      1.00000
      7       3.8115      1.00000
      8       5.3046      1.00000
      9       6.0093      1.00000
     10       6.3770      1.00000
     11       6.7780      1.00000
     12       6.8587      1.00000
     13       8.0855      1.00000
     14       8.0957      1.00000
     15       8.2666      1.00000
     16       8.7259      1.00000
     17       9.3194      0.06804
     18      13.8889      0.00000
     19      16.7359      0.00000
     20      21.7323      0.00000
     21      23.3460      0.00000

 k-point    56 :       0.3438    0.2813    0.0938
  band No.  band energies     occupation 
      1     -44.9553      1.00000
      2     -44.8887      1.00000
      3     -44.8136      1.00000
      4     -44.7198      1.00000
      5     -44.7067      1.00000
      6     -44.6428      1.00000
      7       4.1954      1.00000
      8       5.2344      1.00000
      9       6.2811      1.00000
     10       6.3034      1.00000
     11       6.6838      1.00000
     12       6.8956      1.00000
     13       8.0177      1.00000
     14       8.0918      1.00000
     15       8.3349      1.00000
     16       9.0326      1.00341
     17       9.2934      0.21132
     18      12.9378      0.00000
     19      16.9791      0.00000
     20      21.9818      0.00000
     21      22.4539      0.00000

 k-point    57 :       0.4063    0.2813    0.0938
  band No.  band energies     occupation 
      1     -44.9558      1.00000
      2     -44.9148      1.00000
      3     -44.7947      1.00000
      4     -44.7367      1.00000
      5     -44.6882      1.00000
      6     -44.6490      1.00000
      7       4.5193      1.00000
      8       5.1193      1.00000
      9       6.2736      1.00000
     10       6.3959      1.00000
     11       6.6946      1.00000
     12       7.0080      1.00000
     13       8.0076      1.00000
     14       8.0938      1.00000
     15       8.4899      1.00000
     16       9.1938      0.93255
     17       9.4028     -0.02934
     18      11.7912      0.00000
     19      17.6622      0.00000
     20      20.7201      0.00000
     21      23.2798      0.00000

 k-point    58 :       0.4688    0.2813    0.0938
  band No.  band energies     occupation 
      1     -44.9491      1.00000
      2     -44.9353      1.00000
      3     -44.7750      1.00000
      4     -44.7554      1.00000
      5     -44.6721      1.00000
      6     -44.6589      1.00000
      7       4.7703      1.00000
      8       4.9650      1.00000
      9       6.2868      1.00000
     10       6.3376      1.00000
     11       6.8723      1.00000
     12       7.0013      1.00000
     13       8.0440      1.00000
     14       8.0844      1.00000
     15       8.7508      1.00000
     16       9.0123      1.00148
     17       9.9390     -0.00000
     18      10.7457     -0.00000
     19      18.5469      0.00000
     20      19.5721      0.00000
     21      24.1967      0.00000

 k-point    59 :       0.3438    0.3438    0.0938
  band No.  band energies     occupation 
      1     -44.9662      1.00000
      2     -44.9169      1.00000
      3     -44.8005      1.00000
      4     -44.7302      1.00000
      5     -44.6879      1.00000
      6     -44.6408      1.00000
      7       4.4202      1.00000
      8       5.1047      1.00000
      9       6.2029      1.00000
     10       6.4770      1.00000
     11       6.6419      1.00000
     12       7.1914      1.00000
     13       8.0206      1.00000
     14       8.1737      1.00000
     15       8.3090      1.00000
     16       9.3098      0.11304
     17       9.3424     -0.00324
     18      12.6248      0.00000
     19      16.5090      0.00000
     20      20.6186      0.00000
     21      23.0961      0.00000

 k-point    60 :       0.4063    0.3438    0.0938
  band No.  band energies     occupation 
      1     -44.9708      1.00000
      2     -44.9405      1.00000
      3     -44.7860      1.00000
      4     -44.7425      1.00000
      5     -44.6718      1.00000
      6     -44.6430      1.00000
      7       4.5862      1.00000
      8       4.9697      1.00000
      9       6.1514      1.00000
     10       6.3206      1.00000
     11       6.9797      1.00000
     12       7.4577      1.00000
     13       8.0669      1.00000
     14       8.2057      1.00000
     15       8.4183      1.00000
     16       9.2406      0.63397
     17       9.7040     -0.00000
     18      11.8510      0.00000
     19      16.7406      0.00000
     20      19.3853      0.00000
     21      23.8427      0.00000

 k-point    61 :       0.4688    0.3438    0.0938
  band No.  band energies     occupation 
      1     -44.9681      1.00000
      2     -44.9579      1.00000
      3     -44.7709      1.00000
      4     -44.7562      1.00000
      5     -44.6588      1.00000
      6     -44.6491      1.00000
      7       4.7174      1.00000
      8       4.8406      1.00000
      9       6.1535      1.00000
     10       6.2106      1.00000
     11       7.2666      1.00000
     12       7.4577      1.00000
     13       8.1351      1.00000
     14       8.1929      1.00000
     15       8.7439      1.00000
     16       9.0591      1.00865
     17      10.2123     -0.00000
     18      10.9572     -0.00000
     19      17.3982      0.00000
     20      18.3022      0.00000
     21      24.6803      0.00000

 k-point    62 :       0.4063    0.4063    0.0938
  band No.  band energies     occupation 
      1     -44.9796      1.00000
      2     -44.9610      1.00000
      3     -44.7764      1.00000
      4     -44.7495      1.00000
      5     -44.6587      1.00000
      6     -44.6411      1.00000
      7       4.6249      1.00000
      8       4.8381      1.00000
      9       6.0745      1.00000
     10       6.1839      1.00000
     11       7.3687      1.00000
     12       7.9437      1.00000
     13       8.1359      1.00000
     14       8.2815      1.00000
     15       8.3432      1.00000
     16       9.1947      0.92847
     17      10.0444     -0.00000
     18      11.5817      0.00000
     19      16.3915      0.00000
     20      18.2237      0.00000
     21      24.5023      0.00000

 k-point    63 :       0.4688    0.4063    0.0938
  band No.  band energies     occupation 
      1     -44.9812      1.00000
      2     -44.9749      1.00000
      3     -44.7668      1.00000
      4     -44.7577      1.00000
      5     -44.6491      1.00000
      6     -44.6432      1.00000
      7       4.6684      1.00000
      8       4.7368      1.00000
      9       6.0532      1.00000
     10       6.0905      1.00000
     11       7.7179      1.00000
     12       7.9718      1.00000
     13       8.2035      1.00000
     14       8.2578      1.00000
     15       8.6661      1.00000
     16       9.0153      1.00169
     17      10.4835     -0.00000
     18      11.0452     -0.00000
     19      16.6237      0.00000
     20      17.2788      0.00000
     21      25.2373      0.00000

 k-point    64 :       0.4688    0.4688    0.0938
  band No.  band energies     occupation 
      1     -44.9869      1.00000
      2     -44.9848      1.00000
      3     -44.7631      1.00000
      4     -44.7600      1.00000
      5     -44.6432      1.00000
      6     -44.6412      1.00000
      7       4.6489      1.00000
      8       4.6709      1.00000
      9       6.0065      1.00000
     10       6.0193      1.00000
     11       8.1202      1.00000
     12       8.2474      1.00000
     13       8.2506      1.00000
     14       8.3625      1.00000
     15       8.5859      1.00000
     16       8.8446      1.00000
     17      10.7483     -0.00000
     18      10.9639     -0.00000
     19      16.3438      0.00000
     20      16.5893      0.00000
     21      25.8076      0.00000

 k-point    65 :       0.1563    0.1563    0.1563
  band No.  band energies     occupation 
      1     -44.9008      1.00000
      2     -44.9008      1.00000
      3     -44.7950      1.00000
      4     -44.7580      1.00000
      5     -44.6501      1.00000
      6     -44.6501      1.00000
      7       2.4204      1.00000
      8       5.1979      1.00000
      9       5.1979      1.00000
     10       6.7256      1.00000
     11       6.7256      1.00000
     12       7.6630      1.00000
     13       7.9273      1.00000
     14       8.1225      1.00000
     15       8.1225      1.00000
     16       9.0283      1.00288
     17       9.0283      1.00288
     18      17.1864      0.00000
     19      17.1864      0.00000
     20      18.6048      0.00000
     21      28.3276      0.00000

 k-point    66 :       0.2188    0.1563    0.1563
  band No.  band energies     occupation 
      1     -44.9138      1.00000
      2     -44.8846      1.00000
      3     -44.7866      1.00000
      4     -44.7732      1.00000
      5     -44.6649      1.00000
      6     -44.6483      1.00000
      7       2.8275      1.00000
      8       5.3313      1.00000
      9       5.3663      1.00000
     10       6.6314      1.00000
     11       6.6626      1.00000
     12       7.3439      1.00000
     13       8.0474      1.00000
     14       8.1713      1.00000
     15       8.2083      1.00000
     16       8.7573      1.00000
     17       9.1008      1.02497
     18      15.7701      0.00000
     19      17.8404      0.00000
     20      18.8920      0.00000
     21      27.4046      0.00000

 k-point    67 :       0.2813    0.1563    0.1563
  band No.  band energies     occupation 
      1     -44.9224      1.00000
      2     -44.8642      1.00000
      3     -44.8169      1.00000
      4     -44.7517      1.00000
      5     -44.6838      1.00000
      6     -44.6506      1.00000
      7       3.3276      1.00000
      8       5.4968      1.00000
      9       5.5126      1.00000
     10       6.5851      1.00000
     11       6.5921      1.00000
     12       7.0837      1.00000
     13       7.9617      1.00000
     14       8.2985      1.00000
     15       8.4480      1.00000
     16       8.4805      1.00000
     17       9.0981      1.02371
     18      14.2551      0.00000
     19      18.6229      0.00000
     20      19.4786      0.00000
     21      26.0740      0.00000

 k-point    68 :       0.3438    0.1563    0.1563
  band No.  band energies     occupation 
      1     -44.9254      1.00000
      2     -44.8464      1.00000
      3     -44.8403      1.00000
      4     -44.7311      1.00000
      5     -44.7063      1.00000
      6     -44.6566      1.00000
      7       3.8748      1.00000
      8       5.5605      1.00000
      9       5.6838      1.00000
     10       6.4920      1.00000
     11       6.6201      1.00000
     12       6.9296      1.00000
     13       7.8818      1.00000
     14       8.2305      1.00000
     15       8.3936      1.00000
     16       8.7683      1.00000
     17       9.0294      1.00301
     18      12.8339      0.00000
     19      19.4995      0.00000
     20      20.2198      0.00000
     21      24.8181      0.00000

 k-point    69 :       0.4063    0.1563    0.1563
  band No.  band energies     occupation 
      1     -44.9221      1.00000
      2     -44.8732      1.00000
      3     -44.8140      1.00000
      4     -44.7315      1.00000
      5     -44.7118      1.00000
      6     -44.6662      1.00000
      7       4.4070      1.00000
      8       5.4570      1.00000
      9       5.8791      1.00000
     10       6.3781      1.00000
     11       6.7088      1.00000
     12       6.8861      1.00000
     13       7.8298      1.00000
     14       8.0301      1.00000
     15       8.4947      1.00000
     16       8.9101      1.00001
     17       9.1765      0.99042
     18      11.5752      0.00000
     19      20.4471      0.00000
     20      21.0892      0.00000
     21      23.6341      0.00000

 k-point    70 :       0.4688    0.1563    0.1563
  band No.  band energies     occupation 
      1     -44.9121      1.00000
      2     -44.8956      1.00000
      3     -44.7864      1.00000
      4     -44.7585      1.00000
      5     -44.6943      1.00000
      6     -44.6789      1.00000
      7       4.8642      1.00000
      8       5.2169      1.00000
      9       6.0681      1.00000
     10       6.2370      1.00000
     11       6.8140      1.00000
     12       6.8740      1.00000
     13       7.8286      1.00000
     14       7.8940      1.00000
     15       8.6166      1.00000
     16       8.7625      1.00000
     17       9.7409     -0.00000
     18      10.5331     -0.00000
     19      21.4535      0.00000
     20      22.0800      0.00000
     21      22.5148      0.00000

 k-point    71 :       0.2188    0.2188    0.1563
  band No.  band energies     occupation 
      1     -44.9177      1.00000
      2     -44.8812      1.00000
      3     -44.8139      1.00000
      4     -44.7517      1.00000
      5     -44.6723      1.00000
      6     -44.6510      1.00000
      7       3.2134      1.00000
      8       5.4305      1.00000
      9       5.5529      1.00000
     10       6.5208      1.00000
     11       6.5881      1.00000
     12       7.0324      1.00000
     13       8.0910      1.00000
     14       8.1990      1.00000
     15       8.4498      1.00000
     16       8.6532      1.00000
     17       9.0653      1.01047
     18      15.7639      0.00000
     19      17.1054      0.00000
     20      19.0627      0.00000
     21      26.2842      0.00000

 k-point    72 :       0.2813    0.2188    0.1563
  band No.  band energies     occupation 
      1     -44.9271      1.00000
      2     -44.8639      1.00000
      3     -44.8425      1.00000
      4     -44.7314      1.00000
      5     -44.6890      1.00000
      6     -44.6518      1.00000
      7       3.6762      1.00000
      8       5.5127      1.00000
      9       5.7512      1.00000
     10       6.4370      1.00000
     11       6.5429      1.00000
     12       6.7958      1.00000
     13       8.0561      1.00000
     14       8.2704      1.00000
     15       8.4355      1.00000
     16       8.7511      1.00000
     17       9.0716      1.01257
     18      14.5896      0.00000
     19      17.4838      0.00000
     20      19.6167      0.00000
     21      24.9197      0.00000

 k-point    73 :       0.3438    0.2188    0.1563
  band No.  band energies     occupation 
      1     -44.9331      1.00000
      2     -44.8699      1.00000
      3     -44.8412      1.00000
      4     -44.7127      1.00000
      5     -44.7103      1.00000
      6     -44.6548      1.00000
      7       4.1620      1.00000
      8       5.5356      1.00000
      9       5.9003      1.00000
     10       6.3698      1.00000
     11       6.5587      1.00000
     12       6.6972      1.00000
     13       8.0035      1.00000
     14       8.2341      1.00000
     15       8.3670      1.00000
     16       9.0261      1.00264
     17       9.0923      1.02107
     18      13.2205      0.00000
     19      18.2418      0.00000
     20      20.3316      0.00000
     21      23.5960      0.00000

 k-point    74 :       0.4063    0.2188    0.1563
  band No.  band energies     occupation 
      1     -44.9332      1.00000
      2     -44.8941      1.00000
      3     -44.8156      1.00000
      4     -44.7348      1.00000
      5     -44.6960      1.00000
      6     -44.6608      1.00000
      7       4.6058      1.00000
      8       5.4396      1.00000
      9       6.0105      1.00000
     10       6.2957      1.00000
     11       6.6468      1.00000
     12       6.7283      1.00000
     13       7.9677      1.00000
     14       8.0861      1.00000
     15       8.4766      1.00000
     16       8.9215      1.00001
     17       9.5180     -0.00069
     18      11.9674      0.00000
     19      19.1270      0.00000
     20      21.1742      0.00000
     21      22.3464      0.00000

 k-point    75 :       0.4688    0.2188    0.1563
  band No.  band energies     occupation 
      1     -44.9267      1.00000
      2     -44.9135      1.00000
      3     -44.7885      1.00000
      4     -44.7612      1.00000
      5     -44.6816      1.00000
      6     -44.6698      1.00000
      7       4.9651      1.00000
      8       5.2403      1.00000
      9       6.1146      1.00000
     10       6.2110      1.00000
     11       6.7437      1.00000
     12       6.7723      1.00000
     13       7.9643      1.00000
     14       7.9998      1.00000
     15       8.6131      1.00000
     16       8.7730      1.00000
     17      10.1014     -0.00000
     18      10.9132     -0.00000
     19      20.1087      0.00000
     20      21.1823      0.00000
     21      22.1318      0.00000

 k-point    76 :       0.2813    0.2813    0.1563
  band No.  band energies     occupation 
      1     -44.9360      1.00000
      2     -44.8691      1.00000
      3     -44.8519      1.00000
      4     -44.7128      1.00000
      5     -44.7012      1.00000
      6     -44.6521      1.00000
      7       4.0719      1.00000
      8       5.4924      1.00000
      9       6.0215      1.00000
     10       6.3255      1.00000
     11       6.5463      1.00000
     12       6.5762      1.00000
     13       8.1211      1.00000
     14       8.2631      1.00000
     15       8.3047      1.00000
     16       9.0804      1.01592
     17       9.0806      1.01600
     18      14.4256      0.00000
     19      16.7874      0.00000
     20      20.1338      0.00000
     21      23.5126      0.00000

 k-point    77 :       0.3438    0.2813    0.1563
  band No.  band energies     occupation 
      1     -44.9435      1.00000
      2     -44.8944      1.00000
      3     -44.8330      1.00000
      4     -44.7185      1.00000
      5     -44.6964      1.00000
      6     -44.6534      1.00000
      7       4.4485      1.00000
      8       5.4223      1.00000
      9       6.2155      1.00000
     10       6.2515      1.00000
     11       6.5117      1.00000
     12       6.6335      1.00000
     13       8.1170      1.00000
     14       8.1873      1.00000
     15       8.3271      1.00000
     16       9.0496      1.00631
     17       9.4444     -0.01163
     18      13.4682      0.00000
     19      17.0748      0.00000
     20      20.8048      0.00000
     21      22.1561      0.00000

 k-point    78 :       0.4063    0.2813    0.1563
  band No.  band energies     occupation 
      1     -44.9463      1.00000
      2     -44.9161      1.00000
      3     -44.8106      1.00000
      4     -44.7393      1.00000
      5     -44.6825      1.00000
      6     -44.6567      1.00000
      7       4.7511      1.00000
      8       5.3032      1.00000
      9       6.2072      1.00000
     10       6.2187      1.00000
     11       6.6711      1.00000
     12       6.7781      1.00000
     13       8.1018      1.00000
     14       8.1201      1.00000
     15       8.4349      1.00000
     16       8.9520      1.00007
     17       9.8860     -0.00000
     18      12.3227      0.00000
     19      17.7961      0.00000
     20      20.8925      0.00000
     21      21.6055      0.00000

 k-point    79 :       0.4688    0.2813    0.1563
  band No.  band energies     occupation 
      1     -44.9428      1.00000
      2     -44.9325      1.00000
      3     -44.7866      1.00000
      4     -44.7624      1.00000
      5     -44.6712      1.00000
      6     -44.6626      1.00000
      7       4.9756      1.00000
      8       5.1526      1.00000
      9       6.1888      1.00000
     10       6.1938      1.00000
     11       6.8257      1.00000
     12       6.8684      1.00000
     13       8.0988      1.00000
     14       8.0994      1.00000
     15       8.5950      1.00000
     16       8.7889      1.00000
     17      10.4803     -0.00000
     18      11.2941      0.00000
     19      18.7009      0.00000
     20      19.7376      0.00000
     21      22.5257      0.00000

 k-point    80 :       0.3438    0.3438    0.1563
  band No.  band energies     occupation 
      1     -44.9529      1.00000
      2     -44.9172      1.00000
      3     -44.8187      1.00000
      4     -44.7304      1.00000
      5     -44.6827      1.00000
      6     -44.6530      1.00000
      7       4.6712      1.00000
      8       5.2874      1.00000
      9       6.1614      1.00000
     10       6.3235      1.00000
     11       6.5916      1.00000
     12       6.8542      1.00000
     13       8.1545      1.00000
     14       8.1880      1.00000
     15       8.3132      1.00000
     16       9.0360      1.00388
     17       9.8268     -0.00000
     18      13.2487      0.00000
     19      16.5659      0.00000
     20      20.7942      0.00000
     21      21.4252      0.00000

 k-point    81 :       0.4063    0.3438    0.1563
  band No.  band energies     occupation 
      1     -44.9581      1.00000
      2     -44.9363      1.00000
      3     -44.8010      1.00000
      4     -44.7456      1.00000
      5     -44.6717      1.00000
      6     -44.6544      1.00000
      7       4.8189      1.00000
      8       5.1533      1.00000
      9       6.1106      1.00000
     10       6.2167      1.00000
     11       6.8962      1.00000
     12       7.1176      1.00000
     13       8.1559      1.00000
     14       8.2024      1.00000
     15       8.3800      1.00000
     16       8.9486      1.00006
     17      10.2779     -0.00000
     18      12.5047      0.00000
     19      16.8254      0.00000
     20      19.5517      0.00000
     21      22.1771      0.00000

 k-point    82 :       0.4688    0.3438    0.1563
  band No.  band energies     occupation 
      1     -44.9573      1.00000
      2     -44.9500      1.00000
      3     -44.7820      1.00000
      4     -44.7631      1.00000
      5     -44.6635      1.00000
      6     -44.6578      1.00000
      7       4.9275      1.00000
      8       5.0333      1.00000
      9       6.1034      1.00000
     10       6.1398      1.00000
     11       7.1328      1.00000
     12       7.2306      1.00000
     13       8.1803      1.00000
     14       8.2016      1.00000
     15       8.5489      1.00000
     16       8.7745      1.00000
     17      10.8632     -0.00000
     18      11.6262      0.00000
     19      17.5207      0.00000
     20      18.4513      0.00000
     21      23.0525      0.00000

 k-point    83 :       0.4063    0.4063    0.1563
  band No.  band energies     occupation 
      1     -44.9658      1.00000
      2     -44.9526      1.00000
      3     -44.7891      1.00000
      4     -44.7540      1.00000
      5     -44.6637      1.00000
      6     -44.6538      1.00000
      7       4.8461      1.00000
      8       5.0254      1.00000
      9       6.0436      1.00000
     10       6.1238      1.00000
     11       7.2335      1.00000
     12       7.5042      1.00000
     13       8.1985      1.00000
     14       8.2541      1.00000
     15       8.3486      1.00000
     16       8.8696      1.00000
     17      10.7188     -0.00000
     18      12.3355      0.00000
     19      16.4476      0.00000
     20      18.3710      0.00000
     21      22.8784      0.00000

 k-point    84 :       0.4688    0.4063    0.1563
  band No.  band energies     occupation 
      1     -44.9679      1.00000
      2     -44.9634      1.00000
      3     -44.7765      1.00000
      4     -44.7645      1.00000
      5     -44.6582      1.00000
      6     -44.6550      1.00000
      7       4.8756      1.00000
      8       4.9322      1.00000
      9       6.0226      1.00000
     10       6.0511      1.00000
     11       7.5251      1.00000
     12       7.6688      1.00000
     13       8.2394      1.00000
     14       8.2632      1.00000
     15       8.4585      1.00000
     16       8.6926      1.00000
     17      11.2434     -0.00000
     18      11.8344      0.00000
     19      16.7022      0.00000
     20      17.3955      0.00000
     21      23.6987      0.00000

 k-point    85 :       0.4688    0.4688    0.1563
  band No.  band energies     occupation 
      1     -44.9728      1.00000
      2     -44.9713      1.00000
      3     -44.7712      1.00000
      4     -44.7671      1.00000
      5     -44.6552      1.00000
      6     -44.6542      1.00000
      7       4.8518      1.00000
      8       4.8697      1.00000
      9       5.9822      1.00000
     10       5.9925      1.00000
     11       7.8717      1.00000
     12       7.9921      1.00000
     13       8.2756      1.00000
     14       8.2865      1.00000
     15       8.3673      1.00000
     16       8.5211      1.00000
     17      11.5936      0.00000
     18      11.8261      0.00000
     19      16.3995      0.00000
     20      16.6660      0.00000
     21      24.4264      0.00000

 k-point    86 :       0.2188    0.2188    0.2188
  band No.  band energies     occupation 
      1     -44.9005      1.00000
      2     -44.9005      1.00000
      3     -44.8374      1.00000
      4     -44.7321      1.00000
      5     -44.6668      1.00000
      6     -44.6668      1.00000
      7       3.5888      1.00000
      8       5.6346      1.00000
      9       5.6346      1.00000
     10       6.4489      1.00000
     11       6.4489      1.00000
     12       6.7201      1.00000
     13       8.1660      1.00000
     14       8.1660      1.00000
     15       8.7641      1.00000
     16       8.8038      1.00000
     17       8.8038      1.00000
     18      16.4259      0.00000
     19      16.4259      0.00000
     20      18.4483      0.00000
     21      26.2327      0.00000

 k-point    87 :       0.2813    0.2188    0.2188
  band No.  band energies     occupation 
      1     -44.9164      1.00000
      2     -44.8788      1.00000
      3     -44.8620      1.00000
      4     -44.7143      1.00000
      5     -44.6870      1.00000
      6     -44.6633      1.00000
      7       4.0307      1.00000
      8       5.7316      1.00000
      9       5.7988      1.00000
     10       6.3682      1.00000
     11       6.3789      1.00000
     12       6.5038      1.00000
     13       8.1254      1.00000
     14       8.2524      1.00000
     15       8.5512      1.00000
     16       8.8784      1.00000
     17       9.1045      1.02667
     18      15.0934      0.00000
     19      17.2132      0.00000
     20      18.6924      0.00000
     21      24.8653      0.00000

 k-point    88 :       0.3438    0.2188    0.2188
  band No.  band energies     occupation 
      1     -44.9271      1.00000
      2     -44.8854      1.00000
      3     -44.8535      1.00000
      4     -44.7109      1.00000
      5     -44.6988      1.00000
      6     -44.6623      1.00000
      7       4.4765      1.00000
      8       5.7714      1.00000
      9       5.8351      1.00000
     10       6.2851      1.00000
     11       6.4063      1.00000
     12       6.5050      1.00000
     13       8.0841      1.00000
     14       8.3381      1.00000
     15       8.3438      1.00000
     16       8.8762      1.00000
     17       9.4858     -0.00280
     18      13.7149      0.00000
     19      18.0959      0.00000
     20      19.2399      0.00000
     21      23.5658      0.00000

 k-point    89 :       0.4063    0.2188    0.2188
  band No.  band energies     occupation 
      1     -44.9317      1.00000
      2     -44.9055      1.00000
      3     -44.8256      1.00000
      4     -44.7378      1.00000
      5     -44.6859      1.00000
      6     -44.6640      1.00000
      7       4.8569      1.00000
      8       5.5927      1.00000
      9       5.9370      1.00000
     10       6.2026      1.00000
     11       6.5285      1.00000
     12       6.6361      1.00000
     13       8.0535      1.00000
     14       8.1817      1.00000
     15       8.4418      1.00000
     16       8.8058      1.00000
     17       9.9514     -0.00000
     18      12.4613      0.00000
     19      19.0558      0.00000
     20      19.9668      0.00000
     21      22.3371      0.00000

 k-point    90 :       0.4688    0.2188    0.2188
  band No.  band energies     occupation 
      1     -44.9295      1.00000
      2     -44.9206      1.00000
      3     -44.7962      1.00000
      4     -44.7666      1.00000
      5     -44.6758      1.00000
      6     -44.6685      1.00000
      7       5.1472      1.00000
      8       5.3804      1.00000
      9       6.0319      1.00000
     10       6.1194      1.00000
     11       6.6685      1.00000
     12       6.7150      1.00000
     13       8.0490      1.00000
     14       8.0872      1.00000
     15       8.5569      1.00000
     16       8.6879      1.00000
     17      10.5691     -0.00000
     18      11.4010      0.00000
     19      20.0839      0.00000
     20      20.8524      0.00000
     21      21.1773      0.00000

 k-point    91 :       0.2813    0.2813    0.2188
  band No.  band energies     occupation 
      1     -44.9178      1.00000
      2     -44.8827      1.00000
      3     -44.8742      1.00000
      4     -44.6995      1.00000
      5     -44.6960      1.00000
      6     -44.6689      1.00000
      7       4.4299      1.00000
      8       5.7484      1.00000
      9       6.0343      1.00000
     10       6.2605      1.00000
     11       6.2911      1.00000
     12       6.3318      1.00000
     13       8.1771      1.00000
     14       8.2554      1.00000
     15       8.4802      1.00000
     16       8.8239      1.00000
     17       9.4852     -0.00287
     18      15.1299      0.00000
     19      16.6805      0.00000
     20      18.8259      0.00000
     21      23.7381      0.00000

 k-point    92 :       0.3438    0.2813    0.2188
  band No.  band energies     occupation 
      1     -44.9274      1.00000
      2     -44.9022      1.00000
      3     -44.8533      1.00000
      4     -44.7165      1.00000
      5     -44.6875      1.00000
      6     -44.6683      1.00000
      7       4.7939      1.00000
      8       5.6657      1.00000
      9       6.0901      1.00000
     10       6.1902      1.00000
     11       6.3787      1.00000
     12       6.3886      1.00000
     13       8.1687      1.00000
     14       8.3197      1.00000
     15       8.3375      1.00000
     16       8.8131      1.00000
     17       9.9055     -0.00000
     18      14.1183      0.00000
     19      17.1462      0.00000
     20      19.3610      0.00000
     21      22.4098      0.00000

 k-point    93 :       0.4063    0.2813    0.2188
  band No.  band energies     occupation 
      1     -44.9341      1.00000
      2     -44.9184      1.00000
      3     -44.8270      1.00000
      4     -44.7419      1.00000
      5     -44.6785      1.00000
      6     -44.6677      1.00000
      7       5.0550      1.00000
      8       5.5225      1.00000
      9       6.0680      1.00000
     10       6.1374      1.00000
     11       6.5381      1.00000
     12       6.6079      1.00000
     13       8.1514      1.00000
     14       8.2308      1.00000
     15       8.4055      1.00000
     16       8.7514      1.00000
     17      10.4070     -0.00000
     18      12.9402      0.00000
     19      17.9677      0.00000
     20      20.0920      0.00000
     21      21.1485      0.00000

 k-point    94 :       0.4688    0.2813    0.2188
  band No.  band energies     occupation 
      1     -44.9351      1.00000
      2     -44.9298      1.00000
      3     -44.7985      1.00000
      4     -44.7697      1.00000
      5     -44.6723      1.00000
      6     -44.6689      1.00000
      7       5.2283      1.00000
      8       5.3731      1.00000
      9       6.0753      1.00000
     10       6.0990      1.00000
     11       6.6979      1.00000
     12       6.7291      1.00000
     13       8.1493      1.00000
     14       8.1718      1.00000
     15       8.5126      1.00000
     16       8.6396      1.00000
     17      11.0526     -0.00000
     18      11.8958      0.00000
     19      18.9216      0.00000
     20      19.9830      0.00000
     21      20.9815      0.00000

 k-point    95 :       0.3438    0.3438    0.2188
  band No.  band energies     occupation 
      1     -44.9337      1.00000
      2     -44.9181      1.00000
      3     -44.8400      1.00000
      4     -44.7294      1.00000
      5     -44.6792      1.00000
      6     -44.6708      1.00000
      7       5.0216      1.00000
      8       5.5185      1.00000
      9       6.1113      1.00000
     10       6.1771      1.00000
     11       6.5137      1.00000
     12       6.5196      1.00000
     13       8.2258      1.00000
     14       8.2888      1.00000
     15       8.3170      1.00000
     16       8.7818      1.00000
     17      10.3616     -0.00000
     18      14.0271      0.00000
     19      16.6178      0.00000
     20      19.9001      0.00000
     21      21.0674      0.00000

 k-point    96 :       0.4063    0.3438    0.2188
  band No.  band energies     occupation 
      1     -44.9400      1.00000
      2     -44.9310      1.00000
      3     -44.8193      1.00000
      4     -44.7485      1.00000
      5     -44.6739      1.00000
      6     -44.6709      1.00000
      7       5.1378      1.00000
      8       5.3849      1.00000
      9       6.0649      1.00000
     10       6.1208      1.00000
     11       6.7629      1.00000
     12       6.7671      1.00000
     13       8.2336      1.00000
     14       8.2529      1.00000
     15       8.3692      1.00000
     16       8.7130      1.00000
     17      10.8906     -0.00000
     18      13.2700      0.00000
     19      16.9538      0.00000
     20      19.8163      0.00000
     21      20.6236      0.00000

 k-point    97 :       0.4688    0.3438    0.2188
  band No.  band energies     occupation 
      1     -44.9423      1.00000
      2     -44.9393      1.00000
      3     -44.7955      1.00000
      4     -44.7712      1.00000
      5     -44.6712      1.00000
      6     -44.6705      1.00000
      7       5.2060      1.00000
      8       5.2809      1.00000
      9       6.0528      1.00000
     10       6.0734      1.00000
     11       6.9349      1.00000
     12       6.9390      1.00000
     13       8.2345      1.00000
     14       8.2389      1.00000
     15       8.4640      1.00000
     16       8.5945      1.00000
     17      11.5445      0.00000
     18      12.3547      0.00000
     19      17.7197      0.00000
     20      18.6923      0.00000
     21      21.5002      0.00000

 k-point    98 :       0.4063    0.4063    0.2188
  band No.  band energies     occupation 
      1     -44.9459      1.00000
      2     -44.9411      1.00000
      3     -44.8055      1.00000
      4     -44.7588      1.00000
      5     -44.6724      1.00000
      6     -44.6719      1.00000
      7       5.1501      1.00000
      8       5.2691      1.00000
      9       6.0089      1.00000
     10       6.0689      1.00000
     11       7.0306      1.00000
     12       7.0710      1.00000
     13       8.2701      1.00000
     14       8.2805      1.00000
     15       8.3552      1.00000
     16       8.6408      1.00000
     17      11.4263      0.00000
     18      13.2046      0.00000
     19      16.5385      0.00000
     20      18.6137      0.00000
     21      21.3275      0.00000

 k-point    99 :       0.4688    0.4063    0.2188
  band No.  band energies     occupation 
      1     -44.9488      1.00000
      2     -44.9473      1.00000
      3     -44.7891      1.00000
      4     -44.7729      1.00000
      5     -44.6723      1.00000
      6     -44.6717      1.00000
      7       5.1570      1.00000
      8       5.1927      1.00000
      9       5.9907      1.00000
     10       6.0139      1.00000
     11       7.2340      1.00000
     12       7.2645      1.00000
     13       8.2851      1.00000
     14       8.2902      1.00000
     15       8.4066      1.00000
     16       8.5228      1.00000
     17      12.0379      0.00000
     18      12.6937      0.00000
     19      16.8394      0.00000
     20      17.5950      0.00000
     21      22.1784      0.00000

 k-point   100 :       0.4688    0.4688    0.2188
  band No.  band energies     occupation 
      1     -44.9525      1.00000
      2     -44.9520      1.00000
      3     -44.7820      1.00000
      4     -44.7763      1.00000
      5     -44.6732      1.00000
      6     -44.6728      1.00000
      7       5.1287      1.00000
      8       5.1393      1.00000
      9       5.9570      1.00000
     10       5.9660      1.00000
     11       7.4657      1.00000
     12       7.4882      1.00000
     13       8.3105      1.00000
     14       8.3137      1.00000
     15       8.3735      1.00000
     16       8.4265      1.00000
     17      12.4893      0.00000
     18      12.7598      0.00000
     19      16.5003      0.00000
     20      16.8043      0.00000
     21      22.9785      0.00000

 k-point   101 :       0.2813    0.2813    0.2813
  band No.  band energies     occupation 
      1     -44.8974      1.00000
      2     -44.8947      1.00000
      3     -44.8947      1.00000
      4     -44.6904      1.00000
      5     -44.6904      1.00000
      6     -44.6889      1.00000
      7       4.8307      1.00000
      8       6.0286      1.00000
      9       6.0431      1.00000
     10       6.0431      1.00000
     11       6.1928      1.00000
     12       6.1928      1.00000
     13       8.2433      1.00000
     14       8.2433      1.00000
     15       8.5966      1.00000
     16       8.5966      1.00000
     17       9.9199     -0.00000
     18      15.9547      0.00000
     19      15.9547      0.00000
     20      18.3426      0.00000
     21      23.8519      0.00000

 k-point   102 :       0.3438    0.2813    0.2813
  band No.  band energies     occupation 
      1     -44.9114      1.00000
      2     -44.9111      1.00000
      3     -44.8678      1.00000
      4     -44.7160      1.00000
      5     -44.6850      1.00000
      6     -44.6815      1.00000
      7       5.1692      1.00000
      8       5.8095      1.00000
      9       6.0460      1.00000
     10       6.1325      1.00000
     11       6.1998      1.00000
     12       6.3277      1.00000
     13       8.2288      1.00000
     14       8.3122      1.00000
     15       8.4221      1.00000
     16       8.6437      1.00000
     17      10.3959     -0.00000
     18      14.7663      0.00000
     19      16.8722      0.00000
     20      18.5794      0.00000
     21      22.5273      0.00000

 k-point   103 :       0.4063    0.2813    0.2813
  band No.  band energies     occupation 
      1     -44.9229      1.00000
      2     -44.9218      1.00000
      3     -44.8381      1.00000
      4     -44.7446      1.00000
      5     -44.6804      1.00000
      6     -44.6773      1.00000
      7       5.3478      1.00000
      8       5.6366      1.00000
      9       6.0451      1.00000
     10       6.0867      1.00000
     11       6.3820      1.00000
     12       6.5529      1.00000
     13       8.2172      1.00000
     14       8.3062      1.00000
     15       8.3832      1.00000
     16       8.6231      1.00000
     17      10.9514     -0.00000
     18      13.5692      0.00000
     19      17.8677      0.00000
     20      19.1323      0.00000
     21      21.2644      0.00000

 k-point   104 :       0.4688    0.2813    0.2813
  band No.  band energies     occupation 
      1     -44.9284      1.00000
      2     -44.9279      1.00000
      3     -44.8068      1.00000
      4     -44.7753      1.00000
      5     -44.6772      1.00000
      6     -44.6760      1.00000
      7       5.4302      1.00000
      8       5.5135      1.00000
      9       6.0468      1.00000
     10       6.0587      1.00000
     11       6.5872      1.00000
     12       6.6549      1.00000
     13       8.2175      1.00000
     14       8.2424      1.00000
     15       8.4634      1.00000
     16       8.5521      1.00000
     17      11.6417      0.00000
     18      12.5123      0.00000
     19      18.9335      0.00000
     20      19.8975      0.00000
     21      20.0661      0.00000

 k-point   105 :       0.3438    0.3438    0.2813
  band No.  band energies     occupation 
      1     -44.9193      1.00000
      2     -44.9094      1.00000
      3     -44.8615      1.00000
      4     -44.7263      1.00000
      5     -44.6936      1.00000
      6     -44.6788      1.00000
      7       5.4347      1.00000
      8       5.6959      1.00000
      9       6.0643      1.00000
     10       6.1371      1.00000
     11       6.2282      1.00000
     12       6.4124      1.00000
     13       8.2727      1.00000
     14       8.3191      1.00000
     15       8.3947      1.00000
     16       8.5866      1.00000
     17      10.9250     -0.00000
     18      14.9127      0.00000
     19      16.5113      0.00000
     20      18.7276      0.00000
     21      21.4320      0.00000

 k-point   106 :       0.4063    0.3438    0.2813
  band No.  band energies     occupation 
      1     -44.9253      1.00000
      2     -44.9181      1.00000
      3     -44.8374      1.00000
      4     -44.7499      1.00000
      5     -44.6914      1.00000
      6     -44.6791      1.00000
      7       5.4964      1.00000
      8       5.5822      1.00000
      9       6.0315      1.00000
     10       6.1019      1.00000
     11       6.4554      1.00000
     12       6.6134      1.00000
     13       8.2776      1.00000
     14       8.3337      1.00000
     15       8.3646      1.00000
     16       8.5563      1.00000
     17      11.5257      0.00000
     18      14.0878      0.00000
     19      17.0777      0.00000
     20      19.2987      0.00000
     21      20.1825      0.00000

 k-point   107 :       0.4688    0.3438    0.2813
  band No.  band energies     occupation 
      1     -44.9275      1.00000
      2     -44.9251      1.00000
      3     -44.8084      1.00000
      4     -44.7785      1.00000
      5     -44.6865      1.00000
      6     -44.6820      1.00000
      7       5.4921      1.00000
      8       5.5134      1.00000
      9       6.0305      1.00000
     10       6.0567      1.00000
     11       6.6688      1.00000
     12       6.7244      1.00000
     13       8.2805      1.00000
     14       8.2965      1.00000
     15       8.4255      1.00000
     16       8.4963      1.00000
     17      12.2435      0.00000
     18      13.1079      0.00000
     19      17.9836      0.00000
     20      19.0264      0.00000
     21      20.1019      0.00000

 k-point   108 :       0.4063    0.4063    0.2813
  band No.  band energies     occupation 
      1     -44.9277      1.00000
      2     -44.9206      1.00000
      3     -44.8237      1.00000
      4     -44.7620      1.00000
      5     -44.6961      1.00000
      6     -44.6834      1.00000
      7       5.5002      1.00000
      8       5.5088      1.00000
      9       5.9819      1.00000
     10       6.0660      1.00000
     11       6.6987      1.00000
     12       6.7900      1.00000
     13       8.3153      1.00000
     14       8.3345      1.00000
     15       8.3616      1.00000
     16       8.5065      1.00000
     17      12.1526      0.00000
     18      14.1576      0.00000
     19      16.6523      0.00000
     20      18.9709      0.00000
     21      19.9174      0.00000

 k-point   109 :       0.4688    0.4063    0.2813
  band No.  band energies     occupation 
      1     -44.9278      1.00000
      2     -44.9251      1.00000
      3     -44.8030      1.00000
      4     -44.7810      1.00000
      5     -44.6942      1.00000
      6     -44.6890      1.00000
      7       5.4697      1.00000
      8       5.4721      1.00000
      9       5.9742      1.00000
     10       6.0075      1.00000
     11       6.8895      1.00000
     12       6.9166      1.00000
     13       8.3245      1.00000
     14       8.3300      1.00000
     15       8.3931      1.00000
     16       8.4472      1.00000
     17      12.8538      0.00000
     18      13.5992      0.00000
     19      17.0530      0.00000
     20      17.9015      0.00000
     21      20.7441      0.00000

 k-point   110 :       0.4688    0.4688    0.2813
  band No.  band energies     occupation 
      1     -44.9278      1.00000
      2     -44.9267      1.00000
      3     -44.7940      1.00000
      4     -44.7858      1.00000
      5     -44.6974      1.00000
      6     -44.6951      1.00000
      7       5.4425      1.00000
      8       5.4456      1.00000
      9       5.9421      1.00000
     10       5.9559      1.00000
     11       7.0578      1.00000
     12       7.0646      1.00000
     13       8.3443      1.00000
     14       8.3449      1.00000
     15       8.3801      1.00000
     16       8.4019      1.00000
     17      13.4253      0.00000
     18      13.7582      0.00000
     19      16.6646      0.00000
     20      17.0316      0.00000
     21      21.5581      0.00000

 k-point   111 :       0.3438    0.3438    0.3438
  band No.  band energies     occupation 
      1     -44.9202      1.00000
      2     -44.8810      1.00000
      3     -44.8810      1.00000
      4     -44.7206      1.00000
      5     -44.7206      1.00000
      6     -44.6816      1.00000
      7       5.6983      1.00000
      8       5.8238      1.00000
      9       6.0320      1.00000
     10       6.0320      1.00000
     11       6.2997      1.00000
     12       6.2997      1.00000
     13       8.3193      1.00000
     14       8.3193      1.00000
     15       8.4562      1.00000
     16       8.4562      1.00000
     17      11.5243      0.00000
     18      15.8827      0.00000
     19      15.8827      0.00000
     20      18.3221      0.00000
     21      21.7262      0.00000

 k-point   112 :       0.4063    0.3438    0.3438
  band No.  band energies     occupation 
      1     -44.9196      1.00000
      2     -44.8970      1.00000
      3     -44.8496      1.00000
      4     -44.7509      1.00000
      5     -44.7129      1.00000
      6     -44.6873      1.00000
      7       5.6510      1.00000
      8       5.7835      1.00000
      9       6.0243      1.00000
     10       6.1922      1.00000
     11       6.2754      1.00000
     12       6.4968      1.00000
     13       8.3194      1.00000
     14       8.3620      1.00000
     15       8.3794      1.00000
     16       8.4692      1.00000
     17      12.1884      0.00000
     18      14.8721      0.00000
     19      16.9257      0.00000
     20      18.5945      0.00000
     21      20.4388      0.00000

 k-point   113 :       0.4688    0.3438    0.3438
  band No.  band energies     occupation 
      1     -44.9162      1.00000
      2     -44.9088      1.00000
      3     -44.8167      1.00000
      4     -44.7833      1.00000
      5     -44.7040      1.00000
      6     -44.6951      1.00000
      7       5.6384      1.00000
      8       5.6816      1.00000
      9       6.0479      1.00000
     10       6.1050      1.00000
     11       6.5189      1.00000
     12       6.5913      1.00000
     13       8.3239      1.00000
     14       8.3402      1.00000
     15       8.4037      1.00000
     16       8.4446      1.00000
     17      12.9564      0.00000
     18      13.8560      0.00000
     19      18.0352      0.00000
     20      19.2073      0.00000
     21      19.2101      0.00000

 k-point   114 :       0.4063    0.4063    0.3438
  band No.  band energies     occupation 
      1     -44.9137      1.00000
      2     -44.8911      1.00000
      3     -44.8417      1.00000
      4     -44.7614      1.00000
      5     -44.7242      1.00000
      6     -44.6977      1.00000
      7       5.6572      1.00000
      8       5.8366      1.00000
      9       5.9750      1.00000
     10       6.1745      1.00000
     11       6.4091      1.00000
     12       6.5512      1.00000
     13       8.3472      1.00000
     14       8.3671      1.00000
     15       8.3797      1.00000
     16       8.4355      1.00000
     17      12.8996      0.00000
     18      15.1818      0.00000
     19      16.6824      0.00000
     20      18.8101      0.00000
     21      19.4453      0.00000

 k-point   115 :       0.4688    0.4063    0.3438
  band No.  band energies     occupation 
      1     -44.9069      1.00000
      2     -44.8985      1.00000
      3     -44.8159      1.00000
      4     -44.7867      1.00000
      5     -44.7195      1.00000
      6     -44.7091      1.00000
      7       5.6817      1.00000
      8       5.7489      1.00000
      9       6.0014      1.00000
     10       6.0774      1.00000
     11       6.5877      1.00000
     12       6.6334      1.00000
     13       8.3551      1.00000
     14       8.3646      1.00000
     15       8.3896      1.00000
     16       8.4145      1.00000
     17      13.6835      0.00000
     18      14.5273      0.00000
     19      17.3312      0.00000
     20      18.3232      0.00000
     21      19.4865      0.00000

 k-point   116 :       0.4688    0.4688    0.3438
  band No.  band energies     occupation 
      1     -44.9001      1.00000
      2     -44.8965      1.00000
      3     -44.8058      1.00000
      4     -44.7937      1.00000
      5     -44.7262      1.00000
      6     -44.7211      1.00000
      7       5.7185      1.00000
      8       5.7557      1.00000
      9       5.9503      1.00000
     10       5.9912      1.00000
     11       6.7053      1.00000
     12       6.7199      1.00000
     13       8.3697      1.00000
     14       8.3722      1.00000
     15       8.3862      1.00000
     16       8.3956      1.00000
     17      14.3886      0.00000
     18      14.8174      0.00000
     19      16.9051      0.00000
     20      17.3785      0.00000
     21      20.2273      0.00000

 k-point   117 :       0.4063    0.4063    0.4063
  band No.  band energies     occupation 
      1     -44.9002      1.00000
      2     -44.8585      1.00000
      3     -44.8585      1.00000
      4     -44.7557      1.00000
      5     -44.7557      1.00000
      6     -44.7139      1.00000
      7       5.7256      1.00000
      8       5.9997      1.00000
      9       5.9997      1.00000
     10       6.3059      1.00000
     11       6.3428      1.00000
     12       6.3428      1.00000
     13       8.3715      1.00000
     14       8.3715      1.00000
     15       8.4003      1.00000
     16       8.4003      1.00000
     17      13.6833      0.00000
     18      16.2704      0.00000
     19      16.2704      0.00000
     20      18.4162      0.00000
     21      19.8785      0.00000

 k-point   118 :       0.4688    0.4063    0.4063
  band No.  band energies     occupation 
      1     -44.8871      1.00000
      2     -44.8735      1.00000
      3     -44.8242      1.00000
      4     -44.7895      1.00000
      5     -44.7449      1.00000
      6     -44.7303      1.00000
      7       5.7950      1.00000
      8       5.8988      1.00000
      9       6.0658      1.00000
     10       6.1795      1.00000
     11       6.4193      1.00000
     12       6.4457      1.00000
     13       8.3761      1.00000
     14       8.3839      1.00000
     15       8.3888      1.00000
     16       8.4003      1.00000
     17      14.5257      0.00000
     18      15.4259      0.00000
     19      17.4185      0.00000
     20      18.6226      0.00000
     21      18.7608      0.00000

 k-point   119 :       0.4688    0.4688    0.4063
  band No.  band energies     occupation 
      1     -44.8713      1.00000
      2     -44.8633      1.00000
      3     -44.8168      1.00000
      4     -44.7973      1.00000
      5     -44.7583      1.00000
      6     -44.7491      1.00000
      7       5.8868      1.00000
      8       5.9941      1.00000
      9       5.9992      1.00000
     10       6.1126      1.00000
     11       6.4358      1.00000
     12       6.4422      1.00000
     13       8.3861      1.00000
     14       8.3886      1.00000
     15       8.3909      1.00000
     16       8.3947      1.00000
     17      15.3635      0.00000
     18      15.9340      0.00000
     19      17.1790      0.00000
     20      17.8548      0.00000
     21      19.0761      0.00000

 k-point   120 :       0.4688    0.4688    0.4688
  band No.  band energies     occupation 
      1     -44.8455      1.00000
      2     -44.8282      1.00000
      3     -44.8282      1.00000
      4     -44.7928      1.00000
      5     -44.7928      1.00000
      6     -44.7754      1.00000
      7       5.9958      1.00000
      8       6.0848      1.00000
      9       6.0848      1.00000
     10       6.2318      1.00000
     11       6.2318      1.00000
     12       6.2855      1.00000
     13       8.3938      1.00000
     14       8.3938      1.00000
     15       8.3948      1.00000
     16       8.3948      1.00000
     17      16.3230      0.00000
     18      17.1049      0.00000
     19      17.1049      0.00000
     20      18.3268      0.00000
     21      18.3268      0.00000
 Fermi energy:         9.2566743721

 spin component 2

 k-point     1 :       0.0313    0.0313    0.0313
  band No.  band energies     occupation 
      1     -42.2800      1.00000
      2     -42.2800      1.00000
      3     -42.2743      1.00000
      4     -41.9974      1.00000
      5     -41.9915      1.00000
      6     -41.9915      1.00000
      7       1.2311      1.00000
      8       6.5064      1.00000
      9       6.5064      1.00000
     10       8.9874      1.00047
     11       8.9874      1.00047
     12       9.0410      1.00467
     13      10.9705     -0.00000
     14      10.9706     -0.00000
     15      11.4668      0.00000
     16      11.5610      0.00000
     17      11.5611      0.00000
     18      19.0964      0.00000
     19      19.0964      0.00000
     20      19.1796      0.00000
     21      25.8145      0.00000

 k-point     2 :       0.0938    0.0313    0.0313
  band No.  band energies     occupation 
      1     -42.2827      1.00000
      2     -42.2741      1.00000
      3     -42.2653      1.00000
      4     -42.0106      1.00000
      5     -41.9967      1.00000
      6     -41.9938      1.00000
      7       1.3892      1.00000
      8       6.5574      1.00000
      9       6.5843      1.00000
     10       8.9567      1.00009
     11       8.9789      1.00031
     12       9.1109      1.02951
     13      10.8828     -0.00000
     14      11.0056     -0.00000
     15      11.2585      0.00000
     16      11.3915      0.00000
     17      11.5535      0.00000
     18      18.2446      0.00000
     19      19.4316      0.00000
     20      19.4916      0.00000
     21      25.8500      0.00000

 k-point     3 :       0.1563    0.0313    0.0313
  band No.  band energies     occupation 
      1     -42.2827      1.00000
      2     -42.2627      1.00000
      3     -42.2522      1.00000
      4     -42.0320      1.00000
      5     -42.0070      1.00000
      6     -42.0022      1.00000
      7       1.7009      1.00000
      8       6.6409      1.00000
      9       6.7379      1.00000
     10       8.9345      1.00003
     11       8.9666      1.00016
     12       9.2150      0.82106
     13      10.7108     -0.00000
     14      10.9542     -0.00000
     15      11.0715     -0.00000
     16      11.0984     -0.00000
     17      11.4722      0.00000
     18      16.9675      0.00000
     19      20.0536      0.00000
     20      20.1057      0.00000
     21      25.9243      0.00000

 k-point     4 :       0.2188    0.0313    0.0313
  band No.  band energies     occupation 
      1     -42.2799      1.00000
      2     -42.2461      1.00000
      3     -42.2349      1.00000
      4     -42.0602      1.00000
      5     -42.0220      1.00000
      6     -42.0159      1.00000
      7       2.1567      1.00000
      8       6.7180      1.00000
      9       6.9628      1.00000
     10       8.9252      1.00001
     11       8.9583      1.00010
     12       9.3551     -0.02343
     13      10.4619     -0.00000
     14      10.5992     -0.00000
     15      10.7429     -0.00000
     16      11.1607     -0.00000
     17      11.3353      0.00000
     18      15.6129      0.00000
     19      20.8965      0.00000
     20      20.9428      0.00000
     21      26.0445      0.00000

 k-point     5 :       0.2813    0.0313    0.0313
  band No.  band energies     occupation 
      1     -42.2734      1.00000
      2     -42.2252      1.00000
      3     -42.2138      1.00000
      4     -42.0932      1.00000
      5     -42.0412      1.00000
      6     -42.0341      1.00000
      7       2.7411      1.00000
      8       6.7273      1.00000
      9       7.2521      1.00000
     10       8.9374      1.00003
     11       8.9632      1.00013
     12       9.5299     -0.00039
     13      10.1487     -0.00000
     14      10.2392     -0.00000
     15      10.3760     -0.00000
     16      11.1552     -0.00000
     17      11.2654      0.00000
     18      14.3535      0.00000
     19      21.8996      0.00000
     20      21.9463      0.00000
     21      26.2220      0.00000

 k-point     6 :       0.3438    0.0313    0.0313
  band No.  band energies     occupation 
      1     -42.2622      1.00000
      2     -42.2007      1.00000
      3     -42.1895      1.00000
      4     -42.1284      1.00000
      5     -42.0640      1.00000
      6     -42.0560      1.00000
      7       3.4306      1.00000
      8       6.5910      1.00000
      9       7.5964      1.00000
     10       8.9815      1.00035
     11       8.9850      1.00042
     12       9.7349     -0.00000
     13       9.7931     -0.00000
     14       9.9076     -0.00000
     15      10.0333     -0.00000
     16      10.9425     -0.00000
     17      11.3813      0.00000
     18      13.2980      0.00000
     19      23.0120      0.00000
     20      23.0719      0.00000
     21      26.4757      0.00000

 k-point     7 :       0.4063    0.0313    0.0313
  band No.  band energies     occupation 
      1     -42.2456      1.00000
      2     -42.1739      1.00000
      3     -42.1632      1.00000
      4     -42.1631      1.00000
      5     -42.0897      1.00000
      6     -42.0809      1.00000
      7       4.1898      1.00000
      8       6.2438      1.00000
      9       7.9823      1.00000
     10       8.9880      1.00048
     11       9.0672      1.01107
     12       9.4583     -0.00757
     13       9.6220     -0.00000
     14       9.7373     -0.00000
     15       9.9637     -0.00000
     16      10.7073     -0.00000
     17      11.5165      0.00000
     18      12.5144      0.00000
     19      24.1818      0.00000
     20      24.2850      0.00000
     21      26.8378      0.00000

 k-point     8 :       0.4688    0.0313    0.0313
  band No.  band energies     occupation 
      1     -42.2232      1.00000
      2     -42.1954      1.00000
      3     -42.1456      1.00000
      4     -42.1354      1.00000
      5     -42.1172      1.00000
      6     -42.1077      1.00000
      7       4.9652      1.00000
      8       5.6802      1.00000
      9       8.3906      1.00000
     10       8.7786      1.00000
     11       9.2014      0.89788
     12       9.3653     -0.03191
     13       9.3864     -0.03472
     14       9.5046     -0.00127
     15      10.2083     -0.00000
     16      10.4594     -0.00000
     17      11.7027      0.00000
     18      12.0053      0.00000
     19      25.3378      0.00000
     20      25.5578      0.00000
     21      26.3808      0.00000

 k-point     9 :       0.0938    0.0938    0.0313
  band No.  band energies     occupation 
      1     -42.2885      1.00000
      2     -42.2706      1.00000
      3     -42.2514      1.00000
      4     -42.0285      1.00000
      5     -42.0010      1.00000
      6     -41.9915      1.00000
      7       1.5456      1.00000
      8       6.6267      1.00000
      9       6.6418      1.00000
     10       8.8864      1.00000
     11       8.9579      1.00010
     12       9.2257      0.74896
     13      10.8689     -0.00000
     14      10.9804     -0.00000
     15      10.9929     -0.00000
     16      11.2686      0.00000
     17      11.5826      0.00000
     18      18.3326      0.00000
     19      18.7823      0.00000
     20      19.7752      0.00000
     21      26.1488      0.00000

 k-point    10 :       0.1563    0.0938    0.0313
  band No.  band energies     occupation 
      1     -42.2935      1.00000
      2     -42.2596      1.00000
      3     -42.2339      1.00000
      4     -42.0542      1.00000
      5     -42.0109      1.00000
      6     -41.9947      1.00000
      7       1.8536      1.00000
      8       6.7168      1.00000
      9       6.7837      1.00000
     10       8.8209      1.00000
     11       8.9320      1.00002
     12       9.3724     -0.03469
     13      10.6569     -0.00000
     14      10.7388     -0.00000
     15      10.9907     -0.00000
     16      11.0304     -0.00000
     17      11.5632      0.00000
     18      17.1896      0.00000
     19      19.1921      0.00000
     20      20.3540      0.00000
     21      26.2957      0.00000

 k-point    11 :       0.2188    0.0938    0.0313
  band No.  band energies     occupation 
      1     -42.2951      1.00000
      2     -42.2435      1.00000
      3     -42.2135      1.00000
      4     -42.0856      1.00000
      5     -42.0253      1.00000
      6     -42.0039      1.00000
      7       2.3034      1.00000
      8       6.7941      1.00000
      9       6.9977      1.00000
     10       8.7768      1.00000
     11       8.9042      1.00000
     12       9.5456     -0.00017
     13      10.2955     -0.00000
     14      10.5246     -0.00000
     15      10.6543     -0.00000
     16      11.1227     -0.00000
     17      11.4744      0.00000
     18      15.8239      0.00000
     19      19.9394      0.00000
     20      21.1527      0.00000
     21      26.4454      0.00000

 k-point    12 :       0.2813    0.0938    0.0313
  band No.  band energies     occupation 
      1     -42.2922      1.00000
      2     -42.2230      1.00000
      3     -42.1904      1.00000
      4     -42.1204      1.00000
      5     -42.0439      1.00000
      6     -42.0185      1.00000
      7       2.8791      1.00000
      8       6.8000      1.00000
      9       7.2708      1.00000
     10       8.7620      1.00000
     11       8.8799      1.00000
     12       9.7438     -0.00000
     13       9.9472     -0.00000
     14      10.2579     -0.00000
     15      10.3201     -0.00000
     16      11.2324     -0.00000
     17      11.3284      0.00000
     18      14.5389      0.00000
     19      20.8244      0.00000
     20      22.1192      0.00000
     21      26.6469      0.00000

 k-point    13 :       0.3438    0.0938    0.0313
  band No.  band energies     occupation 
      1     -42.2840      1.00000
      2     -42.1992      1.00000
      3     -42.1653      1.00000
      4     -42.1564      1.00000
      5     -42.0660      1.00000
      6     -42.0375      1.00000
      7       3.5565      1.00000
      8       6.6572      1.00000
      9       7.5907      1.00000
     10       8.7824      1.00000
     11       8.8549      1.00000
     12       9.6371     -0.00000
     13       9.9612     -0.00000
     14       9.9750     -0.00000
     15      10.0316     -0.00000
     16      11.1401     -0.00000
     17      11.3536      0.00000
     18      13.4423      0.00000
     19      21.7936      0.00000
     20      23.2080      0.00000
     21      26.9270      0.00000

 k-point    14 :       0.4063    0.0938    0.0313
  band No.  band energies     occupation 
      1     -42.2697      1.00000
      2     -42.1912      1.00000
      3     -42.1729      1.00000
      4     -42.1387      1.00000
      5     -42.0909      1.00000
      6     -42.0601      1.00000
      7       4.2997      1.00000
      8       6.3076      1.00000
      9       7.9398      1.00000
     10       8.7697      1.00000
     11       8.8663      1.00000
     12       9.3725     -0.03472
     13       9.7303     -0.00000
     14       9.8127     -0.00000
     15      10.2013     -0.00000
     16      10.9237     -0.00000
     17      11.4968      0.00000
     18      12.6035      0.00000
     19      22.8116      0.00000
     20      24.3776      0.00000
     21      25.9663      0.00000

 k-point    15 :       0.4688    0.0938    0.0313
  band No.  band energies     occupation 
      1     -42.2492      1.00000
      2     -42.2227      1.00000
      3     -42.1454      1.00000
      4     -42.1177      1.00000
      5     -42.1117      1.00000
      6     -42.0851      1.00000
      7       5.0561      1.00000
      8       5.7532      1.00000
      9       8.2899      1.00000
     10       8.5900      1.00000
     11       8.9820      1.00036
     12       9.1529      1.02859
     13       9.6239     -0.00000
     14       9.6691     -0.00000
     15      10.4465     -0.00000
     16      10.6901     -0.00000
     17      11.7008      0.00000
     18      12.0401      0.00000
     19      23.8549      0.00000
     20      24.9088      0.00000
     21      25.5846      0.00000

 k-point    16 :       0.1563    0.1563    0.0313
  band No.  band energies     occupation 
      1     -42.3043      1.00000
      2     -42.2496      1.00000
      3     -42.2121      1.00000
      4     -42.0845      1.00000
      5     -42.0198      1.00000
      6     -41.9915      1.00000
      7       2.1539      1.00000
      8       6.8519      1.00000
      9       6.8684      1.00000
     10       8.7043      1.00000
     11       8.8833      1.00000
     12       9.5683     -0.00005
     13      10.3007     -0.00000
     14      10.7345     -0.00000
     15      10.7389     -0.00000
     16      11.0020     -0.00000
     17      11.6224      0.00000
     18      17.1945      0.00000
     19      18.3585      0.00000
     20      20.8713      0.00000
     21      26.5042      0.00000

 k-point    17 :       0.2188    0.1563    0.0313
  band No.  band energies     occupation 
      1     -42.3115      1.00000
      2     -42.2346      1.00000
      3     -42.1882      1.00000
      4     -42.1193      1.00000
      5     -42.0331      1.00000
      6     -41.9947      1.00000
      7       2.5910      1.00000
      8       6.9173      1.00000
      9       7.0712      1.00000
     10       8.6129      1.00000
     11       8.8273      1.00000
     12       9.7847     -0.00000
     13       9.9365     -0.00000
     14      10.4472     -0.00000
     15      10.6149     -0.00000
     16      11.0629     -0.00000
     17      11.6077      0.00000
     18      16.1015      0.00000
     19      18.7223      0.00000
     20      21.6004      0.00000
     21      26.6538      0.00000

 k-point    18 :       0.2813    0.1563    0.0313
  band No.  band energies     occupation 
      1     -42.3139      1.00000
      2     -42.2156      1.00000
      3     -42.1627      1.00000
      4     -42.1565      1.00000
      5     -42.0501      1.00000
      6     -42.0038      1.00000
      7       3.1477      1.00000
      8       6.9033      1.00000
      9       7.3262      1.00000
     10       8.5569      1.00000
     11       8.7714      1.00000
     12       9.5974     -0.00001
     13      10.0171     -0.00000
     14      10.1899     -0.00000
     15      10.4233     -0.00000
     16      11.1728     -0.00000
     17      11.5222      0.00000
     18      14.8187      0.00000
     19      19.4719      0.00000
     20      22.5000      0.00000
     21      26.7547      0.00000

 k-point    19 :       0.3438    0.1563    0.0313
  band No.  band energies     occupation 
      1     -42.3103      1.00000
      2     -42.1935      1.00000
      3     -42.1934      1.00000
      4     -42.1363      1.00000
      5     -42.0704      1.00000
      6     -42.0182      1.00000
      7       3.7983      1.00000
      8       6.7426      1.00000
      9       7.6149      1.00000
     10       8.5432      1.00000
     11       8.7114      1.00000
     12       9.2996      0.17133
     13      10.0169     -0.00000
     14      10.2114     -0.00000
     15      10.2652     -0.00000
     16      11.3006      0.00000
     17      11.3792      0.00000
     18      13.6711      0.00000
     19      20.3359      0.00000
     20      23.5287      0.00000
     21      25.5484      0.00000

 k-point    20 :       0.4063    0.1563    0.0313
  band No.  band energies     occupation 
      1     -42.2999      1.00000
      2     -42.2281      1.00000
      3     -42.1691      1.00000
      4     -42.1096      1.00000
      5     -42.0933      1.00000
      6     -42.0369      1.00000
      7       4.5053      1.00000
      8       6.3944      1.00000
      9       7.9174      1.00000
     10       8.5597      1.00000
     11       8.6412      1.00000
     12       9.0469      1.00576
     13       9.9345     -0.00000
     14      10.0392     -0.00000
     15      10.5116     -0.00000
     16      11.1950     -0.00000
     17      11.4571      0.00000
     18      12.7510      0.00000
     19      21.2685      0.00000
     20      24.3958      0.00000
     21      24.6438      0.00000

 k-point    21 :       0.4688    0.1563    0.0313
  band No.  band energies     occupation 
      1     -42.2825      1.00000
      2     -42.2583      1.00000
      3     -42.1436      1.00000
      4     -42.1180      1.00000
      5     -42.0836      1.00000
      6     -42.0590      1.00000
      7       5.2171      1.00000
      8       5.8692      1.00000
      9       8.2052      1.00000
     10       8.4399      1.00000
     11       8.6953      1.00000
     12       8.8430      1.00000
     13       9.9120     -0.00000
     14       9.9387     -0.00000
     15      10.7555     -0.00000
     16      10.9846     -0.00000
     17      11.6939      0.00000
     18      12.0990      0.00000
     19      22.2566      0.00000
     20      23.2986      0.00000
     21      25.7946      0.00000

 k-point    22 :       0.2188    0.2188    0.0313
  band No.  band energies     occupation 
      1     -42.3248      1.00000
      2     -42.2213      1.00000
      3     -42.1614      1.00000
      4     -42.1569      1.00000
      5     -42.0445      1.00000
      6     -41.9916      1.00000
      7       3.0071      1.00000
      8       6.9862      1.00000
      9       7.2328      1.00000
     10       8.4745      1.00000
     11       8.7465      1.00000
     12       9.5778     -0.00003
     13      10.0409     -0.00000
     14      10.2311     -0.00000
     15      10.6566     -0.00000
     16      11.0376     -0.00000
     17      11.6741      0.00000
     18      15.9398      0.00000
     19      18.0423      0.00000
     20      22.2449      0.00000
     21      26.6563      0.00000

 k-point    23 :       0.2813    0.2188    0.0313
  band No.  band energies     occupation 
      1     -42.3329      1.00000
      2     -42.2044      1.00000
      3     -42.1955      1.00000
      4     -42.1342      1.00000
      5     -42.0593      1.00000
      6     -41.9946      1.00000
      7       3.5316      1.00000
      8       6.9381      1.00000
      9       7.4738      1.00000
     10       8.3754      1.00000
     11       8.6768      1.00000
     12       9.2475      0.57733
     13      10.0841     -0.00000
     14      10.3044     -0.00000
     15      10.5837     -0.00000
     16      11.1065     -0.00000
     17      11.6630      0.00000
     18      14.9872      0.00000
     19      18.3364      0.00000
     20      23.0564      0.00000
     21      25.3326      0.00000

 k-point    24 :       0.3438    0.2188    0.0313
  band No.  band energies     occupation 
      1     -42.3347      1.00000
      2     -42.2328      1.00000
      3     -42.1848      1.00000
      4     -42.1073      1.00000
      5     -42.0769      1.00000
      6     -42.0035      1.00000
      7       4.1352      1.00000
      8       6.7567      1.00000
      9       7.7426      1.00000
     10       8.3242      1.00000
     11       8.6190      1.00000
     12       8.9594      1.00011
     13      10.0427     -0.00000
     14      10.4502     -0.00000
     15      10.5724     -0.00000
     16      11.2298     -0.00000
     17      11.5811      0.00000
     18      13.8720      0.00000
     19      19.0256      0.00000
     20      23.9997      0.00000
     21      24.0733      0.00000

 k-point    25 :       0.4063    0.2188    0.0313
  band No.  band energies     occupation 
      1     -42.3290      1.00000
      2     -42.2664      1.00000
      3     -42.1633      1.00000
      4     -42.0969      1.00000
      5     -42.0814      1.00000
      6     -42.0174      1.00000
      7       4.7773      1.00000
      8       6.4313      1.00000
      9       8.0080      1.00000
     10       8.3252      1.00000
     11       8.5554      1.00000
     12       8.7214      1.00000
     13      10.0871     -0.00000
     14      10.3290     -0.00000
     15      10.8264     -0.00000
     16      11.3979      0.00000
     17      11.4420      0.00000
     18      12.8961      0.00000
     19      19.8586      0.00000
     20      22.8926      0.00000
     21      25.0302      0.00000

 k-point    26 :       0.4688    0.2188    0.0313
  band No.  band energies     occupation 
      1     -42.3156      1.00000
      2     -42.2945      1.00000
      3     -42.1409      1.00000
      4     -42.1185      1.00000
      5     -42.0572      1.00000
      6     -42.0356      1.00000
      7       5.4072      1.00000
      8       5.9727      1.00000
      9       8.2379      1.00000
     10       8.3576      1.00000
     11       8.4760      1.00000
     12       8.5429      1.00000
     13      10.1634     -0.00000
     14      10.2388     -0.00000
     15      11.0579     -0.00000
     16      11.2628      0.00000
     17      11.6759      0.00000
     18      12.1577      0.00000
     19      20.7849      0.00000
     20      21.7961      0.00000
     21      26.0847      0.00000

 k-point    27 :       0.2813    0.2813    0.0313
  band No.  band energies     occupation 
      1     -42.3469      1.00000
      2     -42.2345      1.00000
      3     -42.1904      1.00000
      4     -42.1063      1.00000
      5     -42.0711      1.00000
      6     -41.9916      1.00000
      7       4.0057      1.00000
      8       6.8490      1.00000
      9       7.7189      1.00000
     10       8.2352      1.00000
     11       8.6214      1.00000
     12       8.9252      1.00001
     13      10.0601     -0.00000
     14      10.5905     -0.00000
     15      10.6697     -0.00000
     16      11.0863     -0.00000
     17      11.7286      0.00000
     18      14.6796      0.00000
     19      17.8535      0.00000
     20      23.7679      0.00000
     21      23.9652      0.00000

 k-point    28 :       0.3438    0.2813    0.0313
  band No.  band energies     occupation 
      1     -42.3543      1.00000
      2     -42.2710      1.00000
      3     -42.1740      1.00000
      4     -42.0854      1.00000
      5     -42.0800      1.00000
      6     -41.9946      1.00000
      7       4.5344      1.00000
      8       6.6550      1.00000
      9       7.9987      1.00000
     10       8.1464      1.00000
     11       8.6108      1.00000
     12       8.6477      1.00000
     13      10.1281     -0.00000
     14      10.6395     -0.00000
     15      10.8701     -0.00000
     16      11.1613     -0.00000
     17      11.7163      0.00000
     18      13.8648      0.00000
     19      18.0963      0.00000
     20      22.6868      0.00000
     21      24.6029      0.00000

 k-point    29 :       0.4063    0.2813    0.0313
  band No.  band energies     occupation 
      1     -42.3539      1.00000
      2     -42.3027      1.00000
      3     -42.1562      1.00000
      4     -42.1016      1.00000
      5     -42.0557      1.00000
      6     -42.0031      1.00000
      7       5.0730      1.00000
      8       6.3742      1.00000
      9       8.1161      1.00000
     10       8.2514      1.00000
     11       8.4352      1.00000
     12       8.6212      1.00000
     13      10.2559     -0.00000
     14      10.5688     -0.00000
     15      11.1143     -0.00000
     16      11.3282      0.00000
     17      11.6326      0.00000
     18      12.9468      0.00000
     19      18.7127      0.00000
     20      21.5136      0.00000
     21      25.5104      0.00000

 k-point    30 :       0.4688    0.2813    0.0313
  band No.  band energies     occupation 
      1     -42.3451      1.00000
      2     -42.3278      1.00000
      3     -42.1377      1.00000
      4     -42.1193      1.00000
      5     -42.0344      1.00000
      6     -42.0166      1.00000
      7       5.5765      1.00000
      8       6.0140      1.00000
      9       8.1483      1.00000
     10       8.2413      1.00000
     11       8.4879      1.00000
     12       8.5966      1.00000
     13      10.3910     -0.00000
     14      10.4933     -0.00000
     15      11.3109      0.00000
     16      11.4898      0.00000
     17      11.6454      0.00000
     18      12.1762      0.00000
     19      19.5163      0.00000
     20      20.4545      0.00000
     21      26.4039      0.00000

 k-point    31 :       0.3438    0.3438    0.0313
  band No.  band energies     occupation 
      1     -42.3674      1.00000
      2     -42.3056      1.00000
      3     -42.1616      1.00000
      4     -42.0957      1.00000
      5     -42.0552      1.00000
      6     -41.9916      1.00000
      7       4.9529      1.00000
      8       6.4736      1.00000
      9       8.0218      1.00000
     10       8.3204      1.00000
     11       8.3827      1.00000
     12       8.6967      1.00000
     13      10.2653     -0.00000
     14      10.7344     -0.00000
     15      11.1416     -0.00000
     16      11.1492     -0.00000
     17      11.7734      0.00000
     18      13.4746      0.00000
     19      17.7573      0.00000
     20      21.4197      0.00000
     21      25.3028      0.00000

 k-point    32 :       0.4063    0.3438    0.0313
  band No.  band energies     occupation 
      1     -42.3724      1.00000
      2     -42.3345      1.00000
      3     -42.1481      1.00000
      4     -42.1075      1.00000
      5     -42.0337      1.00000
      6     -41.9945      1.00000
      7       5.3480      1.00000
      8       6.2482      1.00000
      9       7.9585      1.00000
     10       8.1756      1.00000
     11       8.6308      1.00000
     12       8.8388      1.00000
     13      10.4283     -0.00000
     14      10.7326     -0.00000
     15      11.2174     -0.00000
     16      11.4068      0.00000
     17      11.7485      0.00000
     18      12.7934      0.00000
     19      17.9689      0.00000
     20      20.2922      0.00000
     21      26.0285      0.00000

 k-point    33 :       0.4688    0.3438    0.0313
  band No.  band energies     occupation 
      1     -42.3687      1.00000
      2     -42.3559      1.00000
      3     -42.1342      1.00000
      4     -42.1205      1.00000
      5     -42.0160      1.00000
      6     -42.0028      1.00000
      7       5.6941      1.00000
      8       5.9903      1.00000
      9       7.9618      1.00000
     10       8.0343      1.00000
     11       8.8556      1.00000
     12       8.9268      1.00002
     13      10.5793     -0.00000
     14      10.6822     -0.00000
     15      11.4114      0.00000
     16      11.6337      0.00000
     17      11.6720      0.00000
     18      12.1124      0.00000
     19      18.5313      0.00000
     20      19.3219      0.00000
     21      26.6734      0.00000

 k-point    34 :       0.4063    0.4063    0.0313
  band No.  band energies     occupation 
      1     -42.3830      1.00000
      2     -42.3597      1.00000
      3     -42.1394      1.00000
      4     -42.1144      1.00000
      5     -42.0158      1.00000
      6     -41.9917      1.00000
      7       5.5776      1.00000
      8       6.0944      1.00000
      9       7.8631      1.00000
     10       7.9947      1.00000
     11       9.0126      1.00150
     12       9.1478      1.03208
     13      10.5896     -0.00000
     14      10.8045     -0.00000
     15      11.1913     -0.00000
     16      11.6181      0.00000
     17      11.7686      0.00000
     18      12.4074      0.00000
     19      17.7163      0.00000
     20      19.2599      0.00000
     21      26.4902      0.00000

 k-point    35 :       0.4688    0.4063    0.0313
  band No.  band energies     occupation 
      1     -42.3845      1.00000
      2     -42.3767      1.00000
      3     -42.1307      1.00000
      4     -42.1223      1.00000
      5     -42.0026      1.00000
      6     -41.9945      1.00000
      7       5.7664      1.00000
      8       5.9337      1.00000
      9       7.8359      1.00000
     10       7.8799      1.00000
     11       9.3040      0.14477
     12       9.3650     -0.03176
     13      10.7203     -0.00000
     14      10.7963     -0.00000
     15      11.3092      0.00000
     16      11.6114      0.00000
     17      11.7978      0.00000
     18      12.0018      0.00000
     19      17.9117      0.00000
     20      18.4513      0.00000
     21      26.8427      0.00000

 k-point    36 :       0.4688    0.4688    0.0313
  band No.  band energies     occupation 
      1     -42.3914      1.00000
      2     -42.3888      1.00000
      3     -42.1274      1.00000
      4     -42.1246      1.00000
      5     -41.9945      1.00000
      6     -41.9917      1.00000
      7       5.8190      1.00000
      8       5.8727      1.00000
      9       7.7787      1.00000
     10       7.7935      1.00000
     11       9.6721     -0.00000
     12       9.7109     -0.00000
     13      10.8083     -0.00000
     14      10.8364     -0.00000
     15      11.2211     -0.00000
     16      11.3719      0.00000
     17      11.8989      0.00000
     18      11.9530      0.00000
     19      17.7031      0.00000
     20      17.8959      0.00000
     21      26.9479      0.00000

 k-point    37 :       0.0938    0.0938    0.0938
  band No.  band energies     occupation 
      1     -42.2825      1.00000
      2     -42.2825      1.00000
      3     -42.2343      1.00000
      4     -42.0466      1.00000
      5     -41.9969      1.00000
      6     -41.9969      1.00000
      7       1.7004      1.00000
      8       6.6971      1.00000
      9       6.6971      1.00000
     10       8.8680      1.00000
     11       8.8680      1.00000
     12       9.3525     -0.02017
     13      10.6731     -0.00000
     14      10.9105     -0.00000
     15      10.9105     -0.00000
     16      11.4166      0.00000
     17      11.4167      0.00000
     18      18.6422      0.00000
     19      18.6422      0.00000
     20      19.2572      0.00000
     21      26.9280      0.00000

 k-point    38 :       0.1563    0.0938    0.0938
  band No.  band energies     occupation 
      1     -42.2921      1.00000
      2     -42.2707      1.00000
      3     -42.2143      1.00000
      4     -42.0733      1.00000
      5     -42.0075      1.00000
      6     -41.9971      1.00000
      7       2.0050      1.00000
      8       6.7877      1.00000
      9       6.8352      1.00000
     10       8.7776      1.00000
     11       8.8348      1.00000
     12       9.5217     -0.00058
     13      10.3063     -0.00000
     14      10.7743     -0.00000
     15      10.9872     -0.00000
     16      11.1331     -0.00000
     17      11.4719      0.00000
     18      17.4253      0.00000
     19      19.2095      0.00000
     20      19.6438      0.00000
     21      27.0589      0.00000

 k-point    39 :       0.2188    0.0938    0.0938
  band No.  band energies     occupation 
      1     -42.2978      1.00000
      2     -42.2537      1.00000
      3     -42.1923      1.00000
      4     -42.1053      1.00000
      5     -42.0229      1.00000
      6     -42.0028      1.00000
      7       2.4494      1.00000
      8       6.8707      1.00000
      9       7.0353      1.00000
     10       8.7120      1.00000
     11       8.7923      1.00000
     12       9.7167     -0.00000
     13       9.9394     -0.00000
     14      10.5803     -0.00000
     15      10.7953     -0.00000
     16      11.0883     -0.00000
     17      11.4405      0.00000
     18      16.0430      0.00000
     19      19.9639      0.00000
     20      20.3137      0.00000
     21      27.2680      0.00000

 k-point    40 :       0.2813    0.0938    0.0938
  band No.  band energies     occupation 
      1     -42.2986      1.00000
      2     -42.2321      1.00000
      3     -42.1687      1.00000
      4     -42.1402      1.00000
      5     -42.0427      1.00000
      6     -42.0137      1.00000
      7       3.0170      1.00000
      8       6.8785      1.00000
      9       7.2883      1.00000
     10       8.6830      1.00000
     11       8.7445      1.00000
     12       9.6151     -0.00000
     13       9.9338     -0.00000
     14      10.3444     -0.00000
     15      10.4565     -0.00000
     16      11.2036     -0.00000
     17      11.3408      0.00000
     18      14.7382      0.00000
     19      20.8416      0.00000
     20      21.1364      0.00000
     21      27.5704      0.00000

 k-point    41 :       0.3438    0.0938    0.0938
  band No.  band energies     occupation 
      1     -42.2936      1.00000
      2     -42.2070      1.00000
      3     -42.1758      1.00000
      4     -42.1440      1.00000
      5     -42.0662      1.00000
      6     -42.0291      1.00000
      7       3.6831      1.00000
      8       6.7314      1.00000
      9       7.5806      1.00000
     10       8.6865      1.00000
     11       8.6994      1.00000
     12       9.3627     -0.03033
     13      10.0950     -0.00000
     14      10.1551     -0.00000
     15      10.1681     -0.00000
     16      11.1950     -0.00000
     17      11.3300      0.00000
     18      13.6114      0.00000
     19      21.7917      0.00000
     20      22.0677      0.00000
     21      26.7585      0.00000

 k-point    42 :       0.4063    0.0938    0.0938
  band No.  band energies     occupation 
      1     -42.2822      1.00000
      2     -42.2096      1.00000
      3     -42.1793      1.00000
      4     -42.1188      1.00000
      5     -42.0927      1.00000
      6     -42.0482      1.00000
      7       4.4115      1.00000
      8       6.3786      1.00000
      9       7.8917      1.00000
     10       8.5961      1.00000
     11       8.7653      1.00000
     12       9.1751      0.99406
     13       9.8796     -0.00000
     14       9.9202     -0.00000
     15      10.4096     -0.00000
     16      11.0254     -0.00000
     17      11.4838      0.00000
     18      12.7262      0.00000
     19      22.7747      0.00000
     20      23.0816      0.00000
     21      25.7402      0.00000

 k-point    43 :       0.4688    0.0938    0.0938
  band No.  band energies     occupation 
      1     -42.2641      1.00000
      2     -42.2396      1.00000
      3     -42.1503      1.00000
      4     -42.1210      1.00000
      5     -42.0939      1.00000
      6     -42.0701      1.00000
      7       5.1505      1.00000
      8       5.8316      1.00000
      9       8.1907      1.00000
     10       8.4357      1.00000
     11       8.8764      1.00000
     12       9.0177      1.00187
     13       9.7618     -0.00000
     14       9.7793     -0.00000
     15      10.6401     -0.00000
     16      10.8435     -0.00000
     17      11.7148      0.00000
     18      12.1043      0.00000
     19      23.7639      0.00000
     20      24.1671      0.00000
     21      24.7495      0.00000

 k-point    44 :       0.1563    0.1563    0.0938
  band No.  band energies     occupation 
      1     -42.2979      1.00000
      2     -42.2674      1.00000
      3     -42.1917      1.00000
      4     -42.1017      1.00000
      5     -42.0138      1.00000
      6     -41.9972      1.00000
      7       2.3026      1.00000
      8       6.9192      1.00000
      9       6.9239      1.00000
     10       8.6737      1.00000
     11       8.7630      1.00000
     12       9.7258     -0.00000
     13       9.9230     -0.00000
     14      10.7825     -0.00000
     15      10.9575     -0.00000
     16      11.0025     -0.00000
     17      11.4618      0.00000
     18      17.4872      0.00000
     19      18.4367      0.00000
     20      19.9444      0.00000
     21      27.5325      0.00000

 k-point    45 :       0.2188    0.1563    0.0938
  band No.  band energies     occupation 
      1     -42.3066      1.00000
      2     -42.2525      1.00000
      3     -42.1678      1.00000
      4     -42.1351      1.00000
      5     -42.0279      1.00000
      6     -41.9993      1.00000
      7       2.7353      1.00000
      8       6.9975      1.00000
      9       7.1103      1.00000
     10       8.5742      1.00000
     11       8.6980      1.00000
     12       9.5596     -0.00008
     13       9.9551     -0.00000
     14      10.6640     -0.00000
     15      10.7211     -0.00000
     16      11.0339     -0.00000
     17      11.4696      0.00000
     18      16.3496      0.00000
     19      18.8293      0.00000
     20      20.5641      0.00000
     21      27.7965      0.00000

 k-point    46 :       0.2813    0.1563    0.0938
  band No.  band energies     occupation 
      1     -42.3115      1.00000
      2     -42.2318      1.00000
      3     -42.1706      1.00000
      4     -42.1434      1.00000
      5     -42.0468      1.00000
      6     -42.0061      1.00000
      7       3.2854      1.00000
      8       6.9943      1.00000
      9       7.3391      1.00000
     10       8.5096      1.00000
     11       8.6315      1.00000
     12       9.2616      0.45844
     13      10.2009     -0.00000
     14      10.4354     -0.00000
     15      10.4852     -0.00000
     16      11.1513     -0.00000
     17      11.4182      0.00000
     18      15.0453      0.00000
     19      19.5766      0.00000
     20      21.3342      0.00000
     21      26.7654      0.00000

 k-point    47 :       0.3438    0.1563    0.0938
  band No.  band energies     occupation 
      1     -42.3107      1.00000
      2     -42.2072      1.00000
      3     -42.2058      1.00000
      4     -42.1189      1.00000
      5     -42.0696      1.00000
      6     -42.0173      1.00000
      7       3.9265      1.00000
      8       6.8327      1.00000
      9       7.5939      1.00000
     10       8.4765      1.00000
     11       8.5762      1.00000
     12       9.0530      1.00709
     13      10.2029     -0.00000
     14      10.2886     -0.00000
     15      10.4584     -0.00000
     16      11.2852      0.00000
     17      11.3146      0.00000
     18      13.8797      0.00000
     19      20.4289      0.00000
     20      22.2103      0.00000
     21      25.5767      0.00000

 k-point    48 :       0.4063    0.1563    0.0938
  band No.  band energies     occupation 
      1     -42.3031      1.00000
      2     -42.2385      1.00000
      3     -42.1801      1.00000
      4     -42.0952      1.00000
      5     -42.0949      1.00000
      6     -42.0325      1.00000
      7       4.6210      1.00000
      8       6.4795      1.00000
      9       7.8541      1.00000
     10       8.4137      1.00000
     11       8.5843      1.00000
     12       8.9075      1.00000
     13      10.0517     -0.00000
     14      10.1185     -0.00000
     15      10.7007     -0.00000
     16      11.1840     -0.00000
     17      11.4605      0.00000
     18      12.9296      0.00000
     19      21.3487      0.00000
     20      23.1606      0.00000
     21      24.4400      0.00000

 k-point    49 :       0.4688    0.1563    0.0938
  band No.  band energies     occupation 
      1     -42.2883      1.00000
      2     -42.2664      1.00000
      3     -42.1516      1.00000
      4     -42.1230      1.00000
      5     -42.0720      1.00000
      6     -42.0510      1.00000
      7       5.3184      1.00000
      8       5.9581      1.00000
      9       8.0930      1.00000
     10       8.2841      1.00000
     11       8.6651      1.00000
     12       8.7807      1.00000
     13       9.9872     -0.00000
     14      10.0099     -0.00000
     15      10.8987     -0.00000
     16      11.0483     -0.00000
     17      11.7479      0.00000
     18      12.2235      0.00000
     19      22.3251      0.00000
     20      23.3558      0.00000
     21      24.1673      0.00000

 k-point    50 :       0.2188    0.2188    0.0938
  band No.  band energies     occupation 
      1     -42.3180      1.00000
      2     -42.2406      1.00000
      3     -42.1695      1.00000
      4     -42.1428      1.00000
      5     -42.0396      1.00000
      6     -41.9976      1.00000
      7       3.1485      1.00000
      8       7.0757      1.00000
      9       7.2654      1.00000
     10       8.4365      1.00000
     11       8.6144      1.00000
     12       9.2127      0.83534
     13      10.2185     -0.00000
     14      10.5246     -0.00000
     15      10.7028     -0.00000
     16      11.0156     -0.00000
     17      11.5173      0.00000
     18      16.2339      0.00000
     19      18.0957      0.00000
     20      21.1062      0.00000
     21      26.7018      0.00000

 k-point    51 :       0.2813    0.2188    0.0938
  band No.  band energies     occupation 
      1     -42.3268      1.00000
      2     -42.2225      1.00000
      3     -42.2053      1.00000
      4     -42.1180      1.00000
      5     -42.0559      1.00000
      6     -42.0001      1.00000
      7       3.6685      1.00000
      8       7.0388      1.00000
      9       7.4833      1.00000
     10       8.3341      1.00000
     11       8.5404      1.00000
     12       8.9403      1.00004
     13      10.3370     -0.00000
     14      10.4912     -0.00000
     15      10.6307     -0.00000
     16      11.0931     -0.00000
     17      11.5150      0.00000
     18      15.2619      0.00000
     19      18.4002      0.00000
     20      21.7929      0.00000
     21      25.3917      0.00000

 k-point    52 :       0.3438    0.2188    0.0938
  band No.  band energies     occupation 
      1     -42.3301      1.00000
      2     -42.2400      1.00000
      3     -42.2003      1.00000
      4     -42.0941      1.00000
      5     -42.0759      1.00000
      6     -42.0071      1.00000
      7       4.2655      1.00000
      8       6.8595      1.00000
      9       7.7113      1.00000
     10       8.2729      1.00000
     11       8.4857      1.00000
     12       8.7561      1.00000
     13      10.2231     -0.00000
     14      10.4962     -0.00000
     15      10.7693     -0.00000
     16      11.2266     -0.00000
     17      11.4525      0.00000
     18      14.1324      0.00000
     19      19.0955      0.00000
     20      22.5900      0.00000
     21      24.1373      0.00000

 k-point    53 :       0.4063    0.2188    0.0938
  band No.  band energies     occupation 
      1     -42.3266      1.00000
      2     -42.2711      1.00000
      3     -42.1756      1.00000
      4     -42.0988      1.00000
      5     -42.0716      1.00000
      6     -42.0183      1.00000
      7       4.8983      1.00000
      8       6.5307      1.00000
      9       7.9208      1.00000
     10       8.2384      1.00000
     11       8.4602      1.00000
     12       8.6320      1.00000
     13      10.1944     -0.00000
     14      10.3721     -0.00000
     15      10.9901     -0.00000
     16      11.3482      0.00000
     17      11.4412      0.00000
     18      13.1445      0.00000
     19      19.9274      0.00000
     20      22.9581      0.00000
     21      23.4703      0.00000

 k-point    54 :       0.4688    0.2188    0.0938
  band No.  band energies     occupation 
      1     -42.3154      1.00000
      2     -42.2967      1.00000
      3     -42.1497      1.00000
      4     -42.1237      1.00000
      5     -42.0511      1.00000
      6     -42.0331      1.00000
      7       5.5175      1.00000
      8       6.0742      1.00000
      9       8.0863      1.00000
     10       8.1899      1.00000
     11       8.4769      1.00000
     12       8.5387      1.00000
     13      10.2211     -0.00000
     14      10.2791     -0.00000
     15      11.1262     -0.00000
     16      11.2335     -0.00000
     17      11.8142      0.00000
     18      12.3723      0.00000
     19      20.8519      0.00000
     20      21.8621      0.00000
     21      24.4157      0.00000

 k-point    55 :       0.2813    0.2813    0.0938
  band No.  band energies     occupation 
      1     -42.3398      1.00000
      2     -42.2408      1.00000
      3     -42.2074      1.00000
      4     -42.0936      1.00000
      5     -42.0689      1.00000
      6     -41.9981      1.00000
      7       4.1410      1.00000
      8       6.9526      1.00000
      9       7.7189      1.00000
     10       8.1959      1.00000
     11       8.4800      1.00000
     12       8.6784      1.00000
     13      10.2681     -0.00000
     14      10.7004     -0.00000
     15      10.7974     -0.00000
     16      11.0792     -0.00000
     17      11.5677      0.00000
     18      14.9992      0.00000
     19      17.8804      0.00000
     20      22.3857      0.00000
     21      24.0342      0.00000

 k-point    56 :       0.3438    0.2813    0.0938
  band No.  band energies     occupation 
      1     -42.3475      1.00000
      2     -42.2742      1.00000
      3     -42.1887      1.00000
      4     -42.0849      1.00000
      5     -42.0710      1.00000
      6     -42.0006      1.00000
      7       4.6663      1.00000
      8       6.7592      1.00000
      9       7.9624      1.00000
     10       8.1052      1.00000
     11       8.4634      1.00000
     12       8.4899      1.00000
     13      10.2745     -0.00000
     14      10.6712     -0.00000
     15      11.0628     -0.00000
     16      11.1843     -0.00000
     17      11.5536      0.00000
     18      14.1913      0.00000
     19      18.1298      0.00000
     20      22.7561      0.00000
     21      23.0895      0.00000

 k-point    57 :       0.4063    0.2813    0.0938
  band No.  band energies     occupation 
      1     -42.3483      1.00000
      2     -42.3032      1.00000
      3     -42.1678      1.00000
      4     -42.1036      1.00000
      5     -42.0506      1.00000
      6     -42.0075      1.00000
      7       5.1990      1.00000
      8       6.4793      1.00000
      9       8.0637      1.00000
     10       8.1146      1.00000
     11       8.4107      1.00000
     12       8.4831      1.00000
     13      10.3458     -0.00000
     14      10.5953     -0.00000
     15      11.1767     -0.00000
     16      11.4776      0.00000
     17      11.4997      0.00000
     18      13.2791      0.00000
     19      18.7582      0.00000
     20      21.5790      0.00000
     21      23.8837      0.00000

 k-point    58 :       0.4688    0.2813    0.0938
  band No.  band energies     occupation 
      1     -42.3412      1.00000
      2     -42.3259      1.00000
      3     -42.1459      1.00000
      4     -42.1242      1.00000
      5     -42.0329      1.00000
      6     -42.0184      1.00000
      7       5.6943      1.00000
      8       6.1238      1.00000
      9       8.0685      1.00000
     10       8.1069      1.00000
     11       8.4629      1.00000
     12       8.4989      1.00000
     13      10.4387     -0.00000
     14      10.5198     -0.00000
     15      11.2620      0.00000
     16      11.3667      0.00000
     17      11.9278      0.00000
     18      12.5062      0.00000
     19      19.5699      0.00000
     20      20.5145      0.00000
     21      24.7514      0.00000

 k-point    59 :       0.3438    0.3438    0.0938
  band No.  band energies     occupation 
      1     -42.3598      1.00000
      2     -42.3056      1.00000
      3     -42.1741      1.00000
      4     -42.0964      1.00000
      5     -42.0503      1.00000
      6     -41.9985      1.00000
      7       5.0846      1.00000
      8       6.5772      1.00000
      9       7.9855      1.00000
     10       8.2651      1.00000
     11       8.2721      1.00000
     12       8.5283      1.00000
     13      10.3725     -0.00000
     14      10.7609     -0.00000
     15      11.1419     -0.00000
     16      11.3927      0.00000
     17      11.5868      0.00000
     18      13.8608      0.00000
     19      17.7688      0.00000
     20      21.4853      0.00000
     21      23.6946      0.00000

 k-point    60 :       0.4063    0.3438    0.0938
  band No.  band energies     occupation 
      1     -42.3651      1.00000
      2     -42.3319      1.00000
      3     -42.1580      1.00000
      4     -42.1099      1.00000
      5     -42.0326      1.00000
      6     -42.0009      1.00000
      7       5.4758      1.00000
      8       6.3543      1.00000
      9       7.9210      1.00000
     10       8.0907      1.00000
     11       8.5549      1.00000
     12       8.6574      1.00000
     13      10.4994     -0.00000
     14      10.7547     -0.00000
     15      11.1966     -0.00000
     16      11.5411      0.00000
     17      11.7019      0.00000
     18      13.2246      0.00000
     19      17.9869      0.00000
     20      20.3496      0.00000
     21      24.3908      0.00000

 k-point    61 :       0.4688    0.3438    0.0938
  band No.  band energies     occupation 
      1     -42.3624      1.00000
      2     -42.3512      1.00000
      3     -42.1413      1.00000
      4     -42.1251      1.00000
      5     -42.0183      1.00000
      6     -42.0076      1.00000
      7       5.8145      1.00000
      8       6.1025      1.00000
      9       7.9162      1.00000
     10       7.9731      1.00000
     11       8.7359      1.00000
     12       8.7620      1.00000
     13      10.6202     -0.00000
     14      10.7048     -0.00000
     15      11.2942      0.00000
     16      11.4270      0.00000
     17      12.0716      0.00000
     18      12.5740      0.00000
     19      18.5639      0.00000
     20      19.3681      0.00000
     21      25.1612      0.00000

 k-point    62 :       0.4063    0.4063    0.0938
  band No.  band energies     occupation 
      1     -42.3751      1.00000
      2     -42.3547      1.00000
      3     -42.1474      1.00000
      4     -42.1176      1.00000
      5     -42.0182      1.00000
      6     -41.9988      1.00000
      7       5.7023      1.00000
      8       6.2025      1.00000
      9       7.8308      1.00000
     10       7.9409      1.00000
     11       8.8835      1.00000
     12       8.9229      1.00001
     13      10.6424     -0.00000
     14      10.8262     -0.00000
     15      11.1942     -0.00000
     16      11.5141      0.00000
     17      11.9436      0.00000
     18      12.9381      0.00000
     19      17.7209      0.00000
     20      19.3040      0.00000
     21      24.9793      0.00000

 k-point    63 :       0.4688    0.4063    0.0938
  band No.  band energies     occupation 
      1     -42.3769      1.00000
      2     -42.3701      1.00000
      3     -42.1367      1.00000
      4     -42.1266      1.00000
      5     -42.0077      1.00000
      6     -42.0011      1.00000
      7       5.8850      1.00000
      8       6.0462      1.00000
      9       7.8026      1.00000
     10       7.8400      1.00000
     11       9.1151      1.03119
     12       9.1286      1.03501
     13      10.7557     -0.00000
     14      10.8195     -0.00000
     15      11.2566     -0.00000
     16      11.3945      0.00000
     17      12.2113      0.00000
     18      12.5476      0.00000
     19      17.9232      0.00000
     20      18.4788      0.00000
     21      25.6232      0.00000

 k-point    64 :       0.4688    0.4688    0.0938
  band No.  band energies     occupation 
      1     -42.3834      1.00000
      2     -42.3811      1.00000
      3     -42.1325      1.00000
      4     -42.1291      1.00000
      5     -42.0012      1.00000
      6     -41.9990      1.00000
      7       5.9346      1.00000
      8       5.9861      1.00000
      9       7.7492      1.00000
     10       7.7619      1.00000
     11       9.4003     -0.03038
     12       9.4086     -0.02679
     13      10.8383     -0.00000
     14      10.8617     -0.00000
     15      11.2244     -0.00000
     16      11.2891      0.00000
     17      12.3362      0.00000
     18      12.4526      0.00000
     19      17.7054      0.00000
     20      17.9058      0.00000
     21      26.0732      0.00000

 k-point    65 :       0.1563    0.1563    0.1563
  band No.  band energies     occupation 
      1     -42.2855      1.00000
      2     -42.2855      1.00000
      3     -42.1680      1.00000
      4     -42.1287      1.00000
      5     -42.0084      1.00000
      6     -42.0084      1.00000
      7       2.5943      1.00000
      8       7.0313      1.00000
      9       7.0313      1.00000
     10       8.6169      1.00000
     11       8.6170      1.00000
     12       9.5208     -0.00060
     13       9.9520     -0.00000
     14      10.8703     -0.00000
     15      10.8704     -0.00000
     16      11.1947     -0.00000
     17      11.1948     -0.00000
     18      18.0170      0.00000
     19      18.0170      0.00000
     20      19.2989      0.00000
     21      28.8477      0.00000

 k-point    66 :       0.2188    0.1563    0.1563
  band No.  band energies     occupation 
      1     -42.3003      1.00000
      2     -42.2676      1.00000
      3     -42.1605      1.00000
      4     -42.1439      1.00000
      5     -42.0247      1.00000
      6     -42.0065      1.00000
      7       3.0175      1.00000
      8       7.1363      1.00000
      9       7.1836      1.00000
     10       8.4951      1.00000
     11       8.5410      1.00000
     12       9.1569      1.02487
     13      10.2070     -0.00000
     14      10.7457     -0.00000
     15      10.8889     -0.00000
     16      10.9844     -0.00000
     17      11.2949      0.00000
     18      16.7392      0.00000
     19      18.7137      0.00000
     20      19.6166      0.00000
     21      27.7886      0.00000

 k-point    67 :       0.2813    0.1563    0.1563
  band No.  band energies     occupation 
      1     -42.3103      1.00000
      2     -42.2450      1.00000
      3     -42.1942      1.00000
      4     -42.1203      1.00000
      5     -42.0455      1.00000
      6     -42.0090      1.00000
      7       3.5530      1.00000
      8       7.1461      1.00000
      9       7.3697      1.00000
     10       8.4199      1.00000
     11       8.4529      1.00000
     12       8.8921      1.00000
     13      10.4775     -0.00000
     14      10.5932     -0.00000
     15      10.5988     -0.00000
     16      11.1118     -0.00000
     17      11.3115      0.00000
     18      15.4071      0.00000
     19      19.5201      0.00000
     20      20.2090      0.00000
     21      26.5580      0.00000

 k-point    68 :       0.3438    0.1563    0.1563
  band No.  band energies     occupation 
      1     -42.3140      1.00000
      2     -42.2271      1.00000
      3     -42.2185      1.00000
      4     -42.0976      1.00000
      5     -42.0703      1.00000
      6     -42.0157      1.00000
      7       4.1729      1.00000
      8       6.9736      1.00000
      9       7.5742      1.00000
     10       8.3562      1.00000
     11       8.4030      1.00000
     12       8.7604      1.00000
     13      10.3627     -0.00000
     14      10.4297     -0.00000
     15      10.7458     -0.00000
     16      11.2586      0.00000
     17      11.2683      0.00000
     18      14.2117      0.00000
     19      20.3973      0.00000
     20      20.9431      0.00000
     21      25.4004      0.00000

 k-point    69 :       0.4063    0.1563    0.1563
  band No.  band energies     occupation 
      1     -42.3107      1.00000
      2     -42.2569      1.00000
      3     -42.1895      1.00000
      4     -42.0982      1.00000
      5     -42.0764      1.00000
      6     -42.0263      1.00000
      7       4.8384      1.00000
      8       6.6120      1.00000
      9       7.7788      1.00000
     10       8.2485      1.00000
     11       8.4464      1.00000
     12       8.7030      1.00000
     13      10.2062     -0.00000
     14      10.2796     -0.00000
     15      10.9576     -0.00000
     16      11.1996     -0.00000
     17      11.4867      0.00000
     18      13.2174      0.00000
     19      21.3211      0.00000
     20      21.7933      0.00000
     21      24.3097      0.00000

 k-point    70 :       0.4688    0.1563    0.1563
  band No.  band energies     occupation 
      1     -42.2999      1.00000
      2     -42.2817      1.00000
      3     -42.1589      1.00000
      4     -42.1281      1.00000
      5     -42.0571      1.00000
      6     -42.0402      1.00000
      7       5.5005      1.00000
      8       6.1068      1.00000
      9       7.9648      1.00000
     10       8.1211      1.00000
     11       8.5353      1.00000
     12       8.6334      1.00000
     13      10.1436     -0.00000
     14      10.1742     -0.00000
     15      11.0701     -0.00000
     16      11.1345     -0.00000
     17      11.8760      0.00000
     18      12.4448      0.00000
     19      22.2802      0.00000
     20      22.7550      0.00000
     21      23.2738      0.00000

 k-point    71 :       0.2188    0.2188    0.1563
  band No.  band energies     occupation 
      1     -42.3049      1.00000
      2     -42.2640      1.00000
      3     -42.1909      1.00000
      4     -42.1203      1.00000
      5     -42.0329      1.00000
      6     -42.0095      1.00000
      7       3.4243      1.00000
      8       7.2351      1.00000
      9       7.3269      1.00000
     10       8.3663      1.00000
     11       8.4355      1.00000
     12       8.8011      1.00000
     13      10.4908     -0.00000
     14      10.7896     -0.00000
     15      10.8001     -0.00000
     16      10.9711     -0.00000
     17      11.2692      0.00000
     18      16.7571      0.00000
     19      18.0818      0.00000
     20      19.8215      0.00000
     21      26.7561      0.00000

 k-point    72 :       0.2813    0.2188    0.1563
  band No.  band energies     occupation 
      1     -42.3156      1.00000
      2     -42.2449      1.00000
      3     -42.2227      1.00000
      4     -42.0979      1.00000
      5     -42.0513      1.00000
      6     -42.0104      1.00000
      7       3.9343      1.00000
      8       7.2263      1.00000
      9       7.4954      1.00000
     10       8.2596      1.00000
     11       8.3485      1.00000
     12       8.5662      1.00000
     13      10.6007     -0.00000
     14      10.7125     -0.00000
     15      10.7883     -0.00000
     16      11.0679     -0.00000
     17      11.3009      0.00000
     18      15.7218      0.00000
     19      18.4785      0.00000
     20      20.3758      0.00000
     21      25.4867      0.00000

 k-point    73 :       0.3438    0.2188    0.1563
  band No.  band energies     occupation 
      1     -42.3226      1.00000
      2     -42.2532      1.00000
      3     -42.2197      1.00000
      4     -42.0773      1.00000
      5     -42.0749      1.00000
      6     -42.0137      1.00000
      7       4.5158      1.00000
      8       7.0445      1.00000
      9       7.6496      1.00000
     10       8.1830      1.00000
     11       8.2944      1.00000
     12       8.4915      1.00000
     13      10.4410     -0.00000
     14      10.5951     -0.00000
     15      11.0390     -0.00000
     16      11.2514     -0.00000
     17      11.2914      0.00000
     18      14.5506      0.00000
     19      19.2128      0.00000
     20      21.0781      0.00000
     21      24.2509      0.00000

 k-point    74 :       0.4063    0.2188    0.1563
  band No.  band energies     occupation 
      1     -42.3231      1.00000
      2     -42.2801      1.00000
      3     -42.1913      1.00000
      4     -42.1019      1.00000
      5     -42.0590      1.00000
      6     -42.0204      1.00000
      7       5.1270      1.00000
      8       6.7027      1.00000
      9       7.7889      1.00000
     10       8.1033      1.00000
     11       8.3102      1.00000
     12       8.4880      1.00000
     13      10.3551     -0.00000
     14      10.4778     -0.00000
     15      11.1443     -0.00000
     16      11.2523     -0.00000
     17      11.6054      0.00000
     18      13.5303      0.00000
     19      20.0553      0.00000
     20      21.8957      0.00000
     21      23.0813      0.00000

 k-point    75 :       0.4688    0.2188    0.1563
  band No.  band energies     occupation 
      1     -42.3161      1.00000
      2     -42.3015      1.00000
      3     -42.1613      1.00000
      4     -42.1311      1.00000
      5     -42.0432      1.00000
      6     -42.0302      1.00000
      7       5.7197      1.00000
      8       6.2531      1.00000
      9       7.9098      1.00000
     10       8.0129      1.00000
     11       8.3806      1.00000
     12       8.4552      1.00000
     13      10.3410     -0.00000
     14      10.3865     -0.00000
     15      11.1853     -0.00000
     16      11.2137     -0.00000
     17      12.0856      0.00000
     18      12.7126      0.00000
     19      20.9810      0.00000
     20      21.9896      0.00000
     21      22.8152      0.00000

 k-point    76 :       0.2813    0.2813    0.1563
  band No.  band energies     occupation 
      1     -42.3258      1.00000
      2     -42.2524      1.00000
      3     -42.2315      1.00000
      4     -42.0774      1.00000
      5     -42.0647      1.00000
      6     -42.0108      1.00000
      7       4.4027      1.00000
      8       7.1469      1.00000
      9       7.7169      1.00000
     10       8.1241      1.00000
     11       8.2749      1.00000
     12       8.3398      1.00000
     13      10.5286     -0.00000
     14      10.7786     -0.00000
     15      11.0633     -0.00000
     16      11.1132     -0.00000
     17      11.3365      0.00000
     18      15.5476      0.00000
     19      17.9043      0.00000
     20      20.8782      0.00000
     21      24.1694      0.00000

 k-point    77 :       0.3438    0.2813    0.1563
  band No.  band energies     occupation 
      1     -42.3344      1.00000
      2     -42.2804      1.00000
      3     -42.2106      1.00000
      4     -42.0838      1.00000
      5     -42.0594      1.00000
      6     -42.0123      1.00000
      7       4.9202      1.00000
      8       6.9521      1.00000
      9       7.8833      1.00000
     10       8.0308      1.00000
     11       8.2449      1.00000
     12       8.2669      1.00000
     13      10.4845     -0.00000
     14      10.7435     -0.00000
     15      11.1280     -0.00000
     16      11.3442      0.00000
     17      11.4584      0.00000
     18      14.7201      0.00000
     19      18.1887      0.00000
     20      21.5221      0.00000
     21      22.8972      0.00000

 k-point    78 :       0.4063    0.2813    0.1563
  band No.  band energies     occupation 
      1     -42.3377      1.00000
      2     -42.3045      1.00000
      3     -42.1858      1.00000
      4     -42.1068      1.00000
      5     -42.0442      1.00000
      6     -42.0160      1.00000
      7       5.4391      1.00000
      8       6.6714      1.00000
      9       7.9266      1.00000
     10       7.9717      1.00000
     11       8.2728      1.00000
     12       8.3259      1.00000
     13      10.4927     -0.00000
     14      10.6679     -0.00000
     15      11.1940     -0.00000
     16      11.3146      0.00000
     17      11.8527      0.00000
     18      13.7775      0.00000
     19      18.8515      0.00000
     20      21.7152      0.00000
     21      22.2864      0.00000

 k-point    79 :       0.4688    0.2813    0.1563
  band No.  band energies     occupation 
      1     -42.3340      1.00000
      2     -42.3228      1.00000
      3     -42.1591      1.00000
      4     -42.1323      1.00000
      5     -42.0318      1.00000
      6     -42.0225      1.00000
      7       5.9152      1.00000
      8       6.3258      1.00000
      9       7.9284      1.00000
     10       7.9393      1.00000
     11       8.3344      1.00000
     12       8.3670      1.00000
     13      10.5355     -0.00000
     14      10.5949     -0.00000
     15      11.2364     -0.00000
     16      11.2725      0.00000
     17      12.3384      0.00000
     18      12.9689      0.00000
     19      19.6829      0.00000
     20      20.6408      0.00000
     21      23.1612      0.00000

 k-point    80 :       0.3438    0.3438    0.1563
  band No.  band energies     occupation 
      1     -42.3450      1.00000
      2     -42.3059      1.00000
      3     -42.1947      1.00000
      4     -42.0969      1.00000
      5     -42.0444      1.00000
      6     -42.0120      1.00000
      7       5.3380      1.00000
      8       6.7692      1.00000
      9       7.9195      1.00000
     10       8.0780      1.00000
     11       8.1813      1.00000
     12       8.2756      1.00000
     13      10.5425     -0.00000
     14      10.8213     -0.00000
     15      11.1410     -0.00000
     16      11.3703      0.00000
     17      11.7829      0.00000
     18      14.4697      0.00000
     19      17.7871      0.00000
     20      21.6236      0.00000
     21      22.1012      0.00000

 k-point    81 :       0.4063    0.3438    0.1563
  band No.  band energies     occupation 
      1     -42.3510      1.00000
      2     -42.3271      1.00000
      3     -42.1751      1.00000
      4     -42.1136      1.00000
      5     -42.0324      1.00000
      6     -42.0135      1.00000
      7       5.7209      1.00000
      8       6.5515      1.00000
      9       7.8536      1.00000
     10       7.9525      1.00000
     11       8.3829      1.00000
     12       8.4139      1.00000
     13      10.6216     -0.00000
     14      10.8116     -0.00000
     15      11.1909     -0.00000
     16      11.3503      0.00000
     17      12.1459      0.00000
     18      13.8405      0.00000
     19      18.0267      0.00000
     20      20.4736      0.00000
     21      22.8052      0.00000

 k-point    82 :       0.4688    0.3438    0.1563
  band No.  band energies     occupation 
      1     -42.3503      1.00000
      2     -42.3423      1.00000
      3     -42.1540      1.00000
      4     -42.1330      1.00000
      5     -42.0234      1.00000
      6     -42.0172      1.00000
      7       6.0433      1.00000
      8       6.3131      1.00000
      9       7.8363      1.00000
     10       7.8695      1.00000
     11       8.5024      1.00000
     12       8.5314      1.00000
     13      10.7011     -0.00000
     14      10.7643     -0.00000
     15      11.2456     -0.00000
     16      11.2998      0.00000
     17      12.5876      0.00000
     18      13.1563      0.00000
     19      18.6381      0.00000
     20      19.4706      0.00000
     21      23.6266      0.00000

 k-point    83 :       0.4063    0.4063    0.1563
  band No.  band energies     occupation 
      1     -42.3598      1.00000
      2     -42.3453      1.00000
      3     -42.1618      1.00000
      4     -42.1229      1.00000
      5     -42.0237      1.00000
      6     -42.0129      1.00000
      7       5.9416      1.00000
      8       6.4050      1.00000
      9       7.7727      1.00000
     10       7.8491      1.00000
     11       8.5944      1.00000
     12       8.6628      1.00000
     13      10.7363     -0.00000
     14      10.8776     -0.00000
     15      11.1990     -0.00000
     16      11.3387      0.00000
     17      12.4573      0.00000
     18      13.6272      0.00000
     19      17.7344      0.00000
     20      19.4034      0.00000
     21      23.4478      0.00000

 k-point    84 :       0.4688    0.4063    0.1563
  band No.  band energies     occupation 
      1     -42.3622      1.00000
      2     -42.3573      1.00000
      3     -42.1478      1.00000
      4     -42.1344      1.00000
      5     -42.0178      1.00000
      6     -42.0143      1.00000
      7       6.1111      1.00000
      8       6.2587      1.00000
      9       7.7433      1.00000
     10       7.7701      1.00000
     11       8.7838      1.00000
     12       8.8173      1.00000
     13      10.8234     -0.00000
     14      10.8726     -0.00000
     15      11.2348     -0.00000
     16      11.2888      0.00000
     17      12.8109      0.00000
     18      13.2247      0.00000
     19      17.9543      0.00000
     20      18.5449      0.00000
     21      24.2025      0.00000

 k-point    85 :       0.4688    0.4688    0.1563
  band No.  band energies     occupation 
      1     -42.3677      1.00000
      2     -42.3661      1.00000
      3     -42.1419      1.00000
      4     -42.1373      1.00000
      5     -42.0146      1.00000
      6     -42.0134      1.00000
      7       6.1546      1.00000
      8       6.2011      1.00000
      9       7.6962      1.00000
     10       7.7058      1.00000
     11       9.0030      1.00098
     12       9.0171      1.00183
     13      10.8948     -0.00000
     14      10.9129     -0.00000
     15      11.2305     -0.00000
     16      11.2535     -0.00000
     17      13.0059      0.00000
     18      13.1602      0.00000
     19      17.7174      0.00000
     20      17.9347      0.00000
     21      24.8431      0.00000

 k-point    86 :       0.2188    0.2188    0.2188
  band No.  band energies     occupation 
      1     -42.2858      1.00000
      2     -42.2858      1.00000
      3     -42.2169      1.00000
      4     -42.0986      1.00000
      5     -42.0269      1.00000
      6     -42.0269      1.00000
      7       3.8200      1.00000
      8       7.4103      1.00000
      9       7.4103      1.00000
     10       8.2739      1.00000
     11       8.2739      1.00000
     12       8.4279      1.00000
     13      10.8012     -0.00000
     14      10.9047     -0.00000
     15      10.9048     -0.00000
     16      11.0038     -0.00000
     17      11.0038     -0.00000
     18      17.4362      0.00000
     19      17.4363      0.00000
     20      19.2787      0.00000
     21      26.6708      0.00000

 k-point    87 :       0.2813    0.2188    0.2188
  band No.  band energies     occupation 
      1     -42.3037      1.00000
      2     -42.2617      1.00000
      3     -42.2443      1.00000
      4     -42.0790      1.00000
      5     -42.0493      1.00000
      6     -42.0231      1.00000
      7       4.3116      1.00000
      8       7.4544      1.00000
      9       7.5062      1.00000
     10       8.1639      1.00000
     11       8.1708      1.00000
     12       8.2156      1.00000
     13      10.7731     -0.00000
     14      10.8193     -0.00000
     15      11.0253     -0.00000
     16      11.1282     -0.00000
     17      11.1345     -0.00000
     18      16.2205      0.00000
     19      18.2197      0.00000
     20      19.5240      0.00000
     21      25.3989      0.00000

 k-point    88 :       0.3438    0.2188    0.2188
  band No.  band energies     occupation 
      1     -42.3160      1.00000
      2     -42.2704      1.00000
      3     -42.2336      1.00000
      4     -42.0757      1.00000
      5     -42.0620      1.00000
      6     -42.0220      1.00000
      7       4.8644      1.00000
      8       7.2291      1.00000
      9       7.6050      1.00000
     10       8.0669      1.00000
     11       8.1238      1.00000
     12       8.2497      1.00000
     13      10.6070     -0.00000
     14      10.7217     -0.00000
     15      11.1284     -0.00000
     16      11.1863     -0.00000
     17      11.4969      0.00000
     18      15.0102      0.00000
     19      19.0770      0.00000
     20      20.0432      0.00000
     21      24.1924      0.00000

 k-point    89 :       0.4063    0.2188    0.2188
  band No.  band energies     occupation 
      1     -42.3213      1.00000
      2     -42.2927      1.00000
      3     -42.2027      1.00000
      4     -42.1054      1.00000
      5     -42.0479      1.00000
      6     -42.0239      1.00000
      7       5.4332      1.00000
      8       6.8699      1.00000
      9       7.6999      1.00000
     10       7.9685      1.00000
     11       8.1573      1.00000
     12       8.3269      1.00000
     13      10.5174     -0.00000
     14      10.6240     -0.00000
     15      11.1921     -0.00000
     16      11.2056     -0.00000
     17      11.9172      0.00000
     18      13.9569      0.00000
     19      19.9921      0.00000
     20      20.7317      0.00000
     21      23.0534      0.00000

 k-point    90 :       0.4688    0.2188    0.2188
  band No.  band energies     occupation 
      1     -42.3192      1.00000
      2     -42.3094      1.00000
      3     -42.1701      1.00000
      4     -42.1373      1.00000
      5     -42.0368      1.00000
      6     -42.0288      1.00000
      7       5.9716      1.00000
      8       6.4509      1.00000
      9       7.7894      1.00000
     10       7.8771      1.00000
     11       8.2427      1.00000
     12       8.3218      1.00000
     13      10.5011     -0.00000
     14      10.5435     -0.00000
     15      11.2133     -0.00000
     16      11.2148     -0.00000
     17      12.4355      0.00000
     18      13.1015      0.00000
     19      20.9587      0.00000
     20      21.5752      0.00000
     21      21.9776      0.00000

 k-point    91 :       0.2813    0.2813    0.2188
  band No.  band energies     occupation 
      1     -42.3055      1.00000
      2     -42.2673      1.00000
      3     -42.2568      1.00000
      4     -42.0627      1.00000
      5     -42.0593      1.00000
      6     -42.0294      1.00000
      7       4.7721      1.00000
      8       7.4047      1.00000
      9       7.7103      1.00000
     10       7.9879      1.00000
     11       8.0314      1.00000
     12       8.0772      1.00000
     13      10.7639     -0.00000
     14      10.8818     -0.00000
     15      11.0367     -0.00000
     16      11.1161     -0.00000
     17      11.4838      0.00000
     18      16.2422      0.00000
     19      17.7620      0.00000
     20      19.6627      0.00000
     21      24.3480      0.00000

 k-point    92 :       0.3438    0.2813    0.2188
  band No.  band energies     occupation 
      1     -42.3165      1.00000
      2     -42.2890      1.00000
      3     -42.2336      1.00000
      4     -42.0819      1.00000
      5     -42.0495      1.00000
      6     -42.0288      1.00000
      7       5.2741      1.00000
      8       7.1935      1.00000
      9       7.7566      1.00000
     10       7.9371      1.00000
     11       8.0292      1.00000
     12       8.0669      1.00000
     13      10.6898     -0.00000
     14      10.8434     -0.00000
     15      11.1203     -0.00000
     16      11.1711     -0.00000
     17      11.8581      0.00000
     18      15.3445      0.00000
     19      18.2109      0.00000
     20      20.1648      0.00000
     21      23.1045      0.00000

 k-point    93 :       0.4063    0.2813    0.2188
  band No.  band energies     occupation 
      1     -42.3242      1.00000
      2     -42.3071      1.00000
      3     -42.2043      1.00000
      4     -42.1100      1.00000
      5     -42.0397      1.00000
      6     -42.0281      1.00000
      7       5.7661      1.00000
      8       6.9030      1.00000
      9       7.7519      1.00000
     10       7.8617      1.00000
     11       8.0616      1.00000
     12       8.2006      1.00000
     13      10.6557     -0.00000
     14      10.7757     -0.00000
     15      11.1933     -0.00000
     16      11.2064     -0.00000
     17      12.2828      0.00000
     18      14.3392      0.00000
     19      18.9715      0.00000
     20      20.8535      0.00000
     21      21.9232      0.00000

 k-point    94 :       0.4688    0.2813    0.2188
  band No.  band energies     occupation 
      1     -42.3254      1.00000
      2     -42.3196      1.00000
      3     -42.1728      1.00000
      4     -42.1408      1.00000
      5     -42.0330      1.00000
      6     -42.0293      1.00000
      7       6.2042      1.00000
      8       6.5770      1.00000
      9       7.7681      1.00000
     10       7.8045      1.00000
     11       8.1516      1.00000
     12       8.2242      1.00000
     13      10.6670     -0.00000
     14      10.7115     -0.00000
     15      11.2244     -0.00000
     16      11.2253     -0.00000
     17      12.8068      0.00000
     18      13.4824      0.00000
     19      19.8519      0.00000
     20      20.8357      0.00000
     21      21.6965      0.00000

 k-point    95 :       0.3438    0.3438    0.2188
  band No.  band energies     occupation 
      1     -42.3236      1.00000
      2     -42.3067      1.00000
      3     -42.2188      1.00000
      4     -42.0962      1.00000
      5     -42.0405      1.00000
      6     -42.0317      1.00000
      7       5.6917      1.00000
      8       7.0127      1.00000
      9       7.8360      1.00000
     10       7.8807      1.00000
     11       8.0166      1.00000
     12       8.0603      1.00000
     13      10.7287     -0.00000
     14      10.9085     -0.00000
     15      11.1366     -0.00000
     16      11.2015     -0.00000
     17      12.2401      0.00000
     18      15.2077      0.00000
     19      17.7816      0.00000
     20      20.6618      0.00000
     21      21.8455      0.00000

 k-point    96 :       0.4063    0.3438    0.2188
  band No.  band energies     occupation 
      1     -42.3308      1.00000
      2     -42.3210      1.00000
      3     -42.1958      1.00000
      4     -42.1172      1.00000
      5     -42.0348      1.00000
      6     -42.0318      1.00000
      7       6.0604      1.00000
      8       6.8051      1.00000
      9       7.7701      1.00000
     10       7.8050      1.00000
     11       8.0967      1.00000
     12       8.2343      1.00000
     13      10.7670     -0.00000
     14      10.8968     -0.00000
     15      11.1891     -0.00000
     16      11.2269     -0.00000
     17      12.6605      0.00000
     18      14.5493      0.00000
     19      18.0886      0.00000
     20      20.6804      0.00000
     21      21.3354      0.00000

 k-point    97 :       0.4688    0.3438    0.2188
  band No.  band energies     occupation 
      1     -42.3336      1.00000
      2     -42.3303      1.00000
      3     -42.1694      1.00000
      4     -42.1425      1.00000
      5     -42.0319      1.00000
      6     -42.0313      1.00000
      7       6.3536      1.00000
      8       6.5906      1.00000
      9       7.7417      1.00000
     10       7.7536      1.00000
     11       8.2230      1.00000
     12       8.2941      1.00000
     13      10.8107     -0.00000
     14      10.8558     -0.00000
     15      11.2271     -0.00000
     16      11.2365     -0.00000
     17      13.1665      0.00000
     18      13.8021      0.00000
     19      18.7686      0.00000
     20      19.6472      0.00000
     21      22.1607      0.00000

 k-point    98 :       0.4063    0.4063    0.2188
  band No.  band energies     occupation 
      1     -42.3375      1.00000
      2     -42.3324      1.00000
      3     -42.1805      1.00000
      4     -42.1286      1.00000
      5     -42.0335      1.00000
      6     -42.0327      1.00000
      7       6.2737      1.00000
      8       6.6724      1.00000
      9       7.7003      1.00000
     10       7.7461      1.00000
     11       8.2552      1.00000
     12       8.4026      1.00000
     13      10.8537     -0.00000
     14      10.9533     -0.00000
     15      11.2041     -0.00000
     16      11.2420     -0.00000
     17      13.0567      0.00000
     18      14.4205      0.00000
     19      17.7614      0.00000
     20      19.5792      0.00000
     21      21.9835      0.00000

 k-point    99 :       0.4688    0.4063    0.2188
  band No.  band energies     occupation 
      1     -42.3409      1.00000
      2     -42.3393      1.00000
      3     -42.1622      1.00000
      4     -42.1441      1.00000
      5     -42.0334      1.00000
      6     -42.0327      1.00000
      7       6.4212      1.00000
      8       6.5448      1.00000
      9       7.6710      1.00000
     10       7.6884      1.00000
     11       8.4284      1.00000
     12       8.4927      1.00000
     13      10.9146     -0.00000
     14      10.9499     -0.00000
     15      11.2300     -0.00000
     16      11.2435     -0.00000
     17      13.5002      0.00000
     18      13.9932      0.00000
     19      18.0211      0.00000
     20      18.6718      0.00000
     21      22.7784      0.00000

 k-point   100 :       0.4688    0.4688    0.2188
  band No.  band energies     occupation 
      1     -42.3450      1.00000
      2     -42.3445      1.00000
      3     -42.1542      1.00000
      4     -42.1478      1.00000
      5     -42.0345      1.00000
      6     -42.0340      1.00000
      7       6.4556      1.00000
      8       6.4935      1.00000
      9       7.6311      1.00000
     10       7.6379      1.00000
     11       8.6048      1.00000
     12       8.6309      1.00000
     13      10.9715     -0.00000
     14      10.9846     -0.00000
     15      11.2384     -0.00000
     16      11.2442     -0.00000
     17      13.7925      0.00000
     18      13.9864      0.00000
     19      17.7532      0.00000
     20      18.0020      0.00000
     21      23.5122      0.00000

 k-point   101 :       0.2813    0.2813    0.2813
  band No.  band energies     occupation 
      1     -42.2836      1.00000
      2     -42.2799      1.00000
      3     -42.2799      1.00000
      4     -42.0533      1.00000
      5     -42.0533      1.00000
      6     -42.0510      1.00000
      7       5.2170      1.00000
      8       7.6384      1.00000
      9       7.6984      1.00000
     10       7.6985      1.00000
     11       7.9317      1.00000
     12       7.9318      1.00000
     13      10.9477     -0.00000
     14      10.9477     -0.00000
     15      10.9982     -0.00000
     16      10.9983     -0.00000
     17      11.8742      0.00000
     18      17.0364      0.00000
     19      17.0364      0.00000
     20      19.2394      0.00000
     21      24.4110      0.00000

 k-point   102 :       0.3438    0.2813    0.2813
  band No.  band energies     occupation 
      1     -42.2988      1.00000
      2     -42.2987      1.00000
      3     -42.2499      1.00000
      4     -42.0815      1.00000
      5     -42.0473      1.00000
      6     -42.0430      1.00000
      7       5.6897      1.00000
      8       7.3421      1.00000
      9       7.6846      1.00000
     10       7.8384      1.00000
     11       7.8683      1.00000
     12       7.9319      1.00000
     13      10.8444     -0.00000
     14      10.9495     -0.00000
     15      11.0763     -0.00000
     16      11.1079     -0.00000
     17      12.2825      0.00000
     18      15.9425      0.00000
     19      17.9066      0.00000
     20      19.4551      0.00000
     21      23.1787      0.00000

 k-point   103 :       0.4063    0.2813    0.2813
  band No.  band energies     occupation 
      1     -42.3117      1.00000
      2     -42.3107      1.00000
      3     -42.2170      1.00000
      4     -42.1133      1.00000
      5     -42.0422      1.00000
      6     -42.0384      1.00000
      7       6.1304      1.00000
      8       7.0619      1.00000
      9       7.6760      1.00000
     10       7.7622      1.00000
     11       7.9010      1.00000
     12       8.0796      1.00000
     13      10.8020     -0.00000
     14      10.8949     -0.00000
     15      11.1594     -0.00000
     16      11.1874     -0.00000
     17      12.7376      0.00000
     18      14.8898      0.00000
     19      18.8413      0.00000
     20      19.9570      0.00000
     21      22.0042      0.00000

 k-point   104 :       0.4688    0.2813    0.2813
  band No.  band energies     occupation 
      1     -42.3180      1.00000
      2     -42.3175      1.00000
      3     -42.1823      1.00000
      4     -42.1473      1.00000
      5     -42.0386      1.00000
      6     -42.0371      1.00000
      7       6.4954      1.00000
      8       6.7917      1.00000
      9       7.6819      1.00000
     10       7.7094      1.00000
     11       8.0043      1.00000
     12       8.0943      1.00000
     13      10.8072     -0.00000
     14      10.8434     -0.00000
     15      11.2080     -0.00000
     16      11.2206     -0.00000
     17      13.2914      0.00000
     18      13.9991      0.00000
     19      19.8361      0.00000
     20      20.6669      0.00000
     21      20.8901      0.00000

 k-point   105 :       0.3438    0.3438    0.2813
  band No.  band energies     occupation 
      1     -42.3079      1.00000
      2     -42.2966      1.00000
      3     -42.2430      1.00000
      4     -42.0930      1.00000
      5     -42.0570      1.00000
      6     -42.0400      1.00000
      7       6.1073      1.00000
      8       7.2226      1.00000
      9       7.7495      1.00000
     10       7.7511      1.00000
     11       7.8021      1.00000
     12       7.9273      1.00000
     13      10.9007     -0.00000
     14      11.0101     -0.00000
     15      11.0951     -0.00000
     16      11.1264     -0.00000
     17      12.7224      0.00000
     18      16.0378      0.00000
     19      17.6003      0.00000
     20      19.5858      0.00000
     21      22.1502      0.00000

 k-point   106 :       0.4063    0.3438    0.2813
  band No.  band energies     occupation 
      1     -42.3146      1.00000
      2     -42.3064      1.00000
      3     -42.2163      1.00000
      4     -42.1192      1.00000
      5     -42.0545      1.00000
      6     -42.0405      1.00000
      7       6.4539      1.00000
      8       7.0455      1.00000
      9       7.6877      1.00000
     10       7.7033      1.00000
     11       7.8493      1.00000
     12       8.0514      1.00000
     13      10.9104     -0.00000
     14      10.9955     -0.00000
     15      11.1632     -0.00000
     16      11.1870     -0.00000
     17      13.2018      0.00000
     18      15.3024      0.00000
     19      18.1279      0.00000
     20      20.1009      0.00000
     21      20.9812      0.00000

 k-point   107 :       0.4688    0.3438    0.2813
  band No.  band energies     occupation 
      1     -42.3171      1.00000
      2     -42.3143      1.00000
      3     -42.1840      1.00000
      4     -42.1508      1.00000
      5     -42.0490      1.00000
      6     -42.0439      1.00000
      7       6.6967      1.00000
      8       6.8761      1.00000
      9       7.6579      1.00000
     10       7.6640      1.00000
     11       7.9768      1.00000
     12       8.0736      1.00000
     13      10.9304     -0.00000
     14      10.9618     -0.00000
     15      11.2113     -0.00000
     16      11.2215     -0.00000
     17      13.7693      0.00000
     18      14.4718      0.00000
     19      18.9528      0.00000
     20      19.9089      0.00000
     21      20.8465      0.00000

 k-point   108 :       0.4063    0.4063    0.2813
  band No.  band energies     occupation 
      1     -42.3173      1.00000
      2     -42.3094      1.00000
      3     -42.2010      1.00000
      4     -42.1325      1.00000
      5     -42.0598      1.00000
      6     -42.0454      1.00000
      7       6.6642      1.00000
      8       6.9518      1.00000
      9       7.6283      1.00000
     10       7.6682      1.00000
     11       7.9503      1.00000
     12       8.1466      1.00000
     13      10.9771     -0.00000
     14      11.0428     -0.00000
     15      11.1965     -0.00000
     16      11.2076     -0.00000
     17      13.6893      0.00000
     18      15.2980      0.00000
     19      17.7909      0.00000
     20      19.8588      0.00000
     21      20.6612      0.00000

 k-point   109 :       0.4688    0.4063    0.2813
  band No.  band energies     occupation 
      1     -42.3175      1.00000
      2     -42.3145      1.00000
      3     -42.1780      1.00000
      4     -42.1535      1.00000
      5     -42.0577      1.00000
      6     -42.0518      1.00000
      7       6.7770      1.00000
      8       6.8601      1.00000
      9       7.6028      1.00000
     10       7.6190      1.00000
     11       8.1090      1.00000
     12       8.1917      1.00000
     13      11.0164     -0.00000
     14      11.0401     -0.00000
     15      11.2277     -0.00000
     16      11.2319     -0.00000
     17      14.2302      0.00000
     18      14.8212      0.00000
     19      18.1438      0.00000
     20      18.8901      0.00000
     21      21.4307      0.00000

 k-point   110 :       0.4688    0.4688    0.2813
  band No.  band energies     occupation 
      1     -42.3175      1.00000
      2     -42.3163      1.00000
      3     -42.1679      1.00000
      4     -42.1588      1.00000
      5     -42.0614      1.00000
      6     -42.0587      1.00000
      7       6.8011      1.00000
      8       6.8248      1.00000
      9       7.5681      1.00000
     10       7.5751      1.00000
     11       8.2540      1.00000
     12       8.2866      1.00000
     13      11.0593     -0.00000
     14      11.0681     -0.00000
     15      11.2456     -0.00000
     16      11.2467     -0.00000
     17      14.6462      0.00000
     18      14.8984      0.00000
     19      17.8329      0.00000
     20      18.1378      0.00000
     21      22.1866      0.00000

 k-point   111 :       0.3438    0.3438    0.3438
  band No.  band energies     occupation 
      1     -42.3089      1.00000
      2     -42.2650      1.00000
      3     -42.2650      1.00000
      4     -42.0869      1.00000
      5     -42.0869      1.00000
      6     -42.0432      1.00000
      7       6.5196      1.00000
      8       7.2510      1.00000
      9       7.6748      1.00000
     10       7.6748      1.00000
     11       7.8018      1.00000
     12       7.8018      1.00000
     13      11.0425     -0.00000
     14      11.0426     -0.00000
     15      11.1095     -0.00000
     16      11.1095     -0.00000
     17      13.2202      0.00000
     18      16.9433      0.00000
     19      16.9434      0.00000
     20      19.2333      0.00000
     21      22.3891      0.00000

 k-point   112 :       0.4063    0.3438    0.3438
  band No.  band energies     occupation 
      1     -42.3083      1.00000
      2     -42.2831      1.00000
      3     -42.2301      1.00000
      4     -42.1205      1.00000
      5     -42.0784      1.00000
      6     -42.0497      1.00000
      7       6.8294      1.00000
      8       7.1627      1.00000
      9       7.6250      1.00000
     10       7.6851      1.00000
     11       7.7005      1.00000
     12       7.9156      1.00000
     13      11.0287     -0.00000
     14      11.0867     -0.00000
     15      11.1471     -0.00000
     16      11.1869     -0.00000
     17      13.7551      0.00000
     18      16.0100      0.00000
     19      17.9156      0.00000
     20      19.4679      0.00000
     21      21.1900      0.00000

 k-point   113 :       0.4688    0.3438    0.3438
  band No.  band energies     occupation 
      1     -42.3045      1.00000
      2     -42.2963      1.00000
      3     -42.1935      1.00000
      4     -42.1565      1.00000
      5     -42.0685      1.00000
      6     -42.0585      1.00000
      7       6.9853      1.00000
      8       7.0726      1.00000
      9       7.6098      1.00000
     10       7.6348      1.00000
     11       7.8185      1.00000
     12       7.9286      1.00000
     13      11.0390     -0.00000
     14      11.0613     -0.00000
     15      11.2095     -0.00000
     16      11.2234     -0.00000
     17      14.3737      0.00000
     18      15.1227      0.00000
     19      18.9496      0.00000
     20      20.0194      0.00000
     21      20.0420      0.00000

 k-point   114 :       0.4063    0.4063    0.3438
  band No.  band energies     occupation 
      1     -42.3018      1.00000
      2     -42.2765      1.00000
      3     -42.2214      1.00000
      4     -42.1322      1.00000
      5     -42.0911      1.00000
      6     -42.0614      1.00000
      7       7.0630      1.00000
      8       7.1582      1.00000
      9       7.5719      1.00000
     10       7.6678      1.00000
     11       7.7016      1.00000
     12       7.9231      1.00000
     13      11.0910     -0.00000
     14      11.1322     -0.00000
     15      11.1810     -0.00000
     16      11.2080     -0.00000
     17      14.3342      0.00000
     18      16.2480      0.00000
     19      17.7208      0.00000
     20      19.6490      0.00000
     21      20.2564      0.00000

 k-point   115 :       0.4688    0.4063    0.3438
  band No.  band energies     occupation 
      1     -42.2942      1.00000
      2     -42.2849      1.00000
      3     -42.1927      1.00000
      4     -42.1603      1.00000
      5     -42.0858      1.00000
      6     -42.0742      1.00000
      7       7.1205      1.00000
      8       7.1338      1.00000
      9       7.5603      1.00000
     10       7.5965      1.00000
     11       7.8487      1.00000
     12       7.9424      1.00000
     13      11.1139     -0.00000
     14      11.1291     -0.00000
     15      11.2266     -0.00000
     16      11.2359     -0.00000
     17      14.9714      0.00000
     18      15.6751      0.00000
     19      18.3187      0.00000
     20      19.2210      0.00000
     21      20.2588      0.00000

 k-point   116 :       0.4688    0.4688    0.3438
  band No.  band energies     occupation 
      1     -42.2867      1.00000
      2     -42.2827      1.00000
      3     -42.1814      1.00000
      4     -42.1679      1.00000
      5     -42.0933      1.00000
      6     -42.0877      1.00000
      7       7.1398      1.00000
      8       7.1420      1.00000
      9       7.5229      1.00000
     10       7.5387      1.00000
     11       7.9661      1.00000
     12       8.0020      1.00000
     13      11.1464     -0.00000
     14      11.1521     -0.00000
     15      11.2509     -0.00000
     16      11.2541     -0.00000
     17      15.5361      0.00000
     18      15.8803      0.00000
     19      17.9742      0.00000
     20      18.3807      0.00000
     21      20.9396      0.00000

 k-point   117 :       0.4063    0.4063    0.4063
  band No.  band energies     occupation 
      1     -42.2867      1.00000
      2     -42.2402      1.00000
      3     -42.2402      1.00000
      4     -42.1261      1.00000
      5     -42.1261      1.00000
      6     -42.0794      1.00000
      7       7.2435      1.00000
      8       7.3826      1.00000
      9       7.5455      1.00000
     10       7.5455      1.00000
     11       7.7476      1.00000
     12       7.7477      1.00000
     13      11.1814     -0.00000
     14      11.1814     -0.00000
     15      11.2046     -0.00000
     16      11.2046     -0.00000
     17      14.9984      0.00000
     18      17.2623      0.00000
     19      17.2623      0.00000
     20      19.3028      0.00000
     21      20.6338      0.00000

 k-point   118 :       0.4688    0.4063    0.4063
  band No.  band energies     occupation 
      1     -42.2721      1.00000
      2     -42.2570      1.00000
      3     -42.2021      1.00000
      4     -42.1635      1.00000
      5     -42.1140      1.00000
      6     -42.0977      1.00000
      7       7.2878      1.00000
      8       7.3565      1.00000
      9       7.5609      1.00000
     10       7.6268      1.00000
     11       7.6893      1.00000
     12       7.7838      1.00000
     13      11.1889     -0.00000
     14      11.1977     -0.00000
     15      11.2352     -0.00000
     16      11.2428     -0.00000
     17      15.7110      0.00000
     18      16.4908      0.00000
     19      18.3349      0.00000
     20      19.4605      0.00000
     21      19.5987      0.00000

 k-point   119 :       0.4688    0.4688    0.4063
  band No.  band energies     occupation 
      1     -42.2546      1.00000
      2     -42.2457      1.00000
      3     -42.1939      1.00000
      4     -42.1723      1.00000
      5     -42.1291      1.00000
      6     -42.1188      1.00000
      7       7.3620      1.00000
      8       7.4189      1.00000
      9       7.5102      1.00000
     10       7.5630      1.00000
     11       7.7477      1.00000
     12       7.7836      1.00000
     13      11.2186     -0.00000
     14      11.2218     -0.00000
     15      11.2566     -0.00000
     16      11.2593      0.00000
     17      16.4344      0.00000
     18      16.9231      0.00000
     19      18.1454      0.00000
     20      18.7572      0.00000
     21      19.8718      0.00000

 k-point   120 :       0.4688    0.4688    0.4688
  band No.  band energies     occupation 
      1     -42.2260      1.00000
      2     -42.2067      1.00000
      3     -42.2067      1.00000
      4     -42.1673      1.00000
      5     -42.1673      1.00000
      6     -42.1480      1.00000
      7       7.4665      1.00000
      8       7.5431      1.00000
      9       7.5432      1.00000
     10       7.6319      1.00000
     11       7.6319      1.00000
     12       7.6331      1.00000
     13      11.2606      0.00000
     14      11.2606      0.00000
     15      11.2616      0.00000
     16      11.2617      0.00000
     17      17.3079      0.00000
     18      18.0200      0.00000
     19      18.0200      0.00000
     20      19.1651      0.00000
     21      19.1651      0.00000


--------------------------------------------------------------------------------------------------------


 soft charge-density along one line, spin component            1
         0         1         2         3         4         5         6         7         8         9
 total charge-density along one line
 
 soft charge-density along one line, spin component            2
         0         1         2         3         4         5         6         7         8         9
 total charge-density along one line
 
 pseudopotential strength for first ion, spin component:            1
-45.116   0.000   0.000   7.675  -0.000  -0.000  -0.000   0.000
  0.000 -45.116   0.000  -0.000   7.675  -0.000   0.000   0.000
  0.000   0.000 -45.116  -0.000  -0.000   7.675   0.000   0.000
  7.675  -0.000  -0.000   5.614  -0.000  -0.000   0.000  -0.000
 -0.000   7.675  -0.000  -0.000   5.614  -0.000  -0.000  -0.000
 -0.000  -0.000   7.675  -0.000  -0.000   5.614  -0.000  -0.000
 -0.000   0.000   0.000   0.000  -0.000  -0.000  -2.171   0.000
  0.000   0.000   0.000  -0.000  -0.000  -0.000   0.000  -2.171
 -0.000   0.000   0.000   0.000  -0.000  -0.000  -0.000  -0.000
  0.000  -0.000   0.000  -0.000  -0.000  -0.000   0.000   0.000
 -0.000   0.000   0.000   0.000  -0.000  -0.000  -0.000  -0.000
 -0.000   0.000   0.000   0.000  -0.000  -0.000  -2.683   0.000
  0.000   0.000   0.000  -0.000  -0.000  -0.000   0.000  -2.683
 -0.000   0.000   0.000   0.000  -0.000  -0.000  -0.000  -0.000
  0.000  -0.000   0.000  -0.000  -0.000  -0.000   0.000   0.000
 -0.000   0.000   0.000   0.000  -0.000  -0.000  -0.000  -0.000
 -0.000  -0.000  -0.000  -0.000  -0.000   0.000  -0.000  -0.000
 -0.000  -0.000  -0.000  -0.000  -0.000   0.000  -0.000  -0.000
 pseudopotential strength for first ion, spin component:            2
-43.119   0.000   0.000   6.832  -0.000  -0.000  -0.000   0.000
  0.000 -43.119   0.000  -0.000   6.832  -0.000  -0.000   0.000
  0.000   0.000 -43.119  -0.000  -0.000   6.832   0.000  -0.000
  6.832  -0.000  -0.000   5.846  -0.000  -0.000   0.000  -0.000
 -0.000   6.832  -0.000  -0.000   5.846  -0.000  -0.000  -0.000
 -0.000  -0.000   6.832  -0.000  -0.000   5.846  -0.000  -0.000
 -0.000  -0.000   0.000   0.000  -0.000  -0.000  -0.679   0.000
  0.000   0.000  -0.000  -0.000  -0.000  -0.000   0.000  -0.679
 -0.000   0.000   0.000   0.000  -0.000  -0.000  -0.000  -0.000
 -0.000   0.000   0.000  -0.000  -0.000  -0.000   0.000   0.000
 -0.000   0.000   0.000   0.000  -0.000  -0.000  -0.000  -0.000
 -0.000  -0.000   0.000   0.000  -0.000  -0.000  -1.215   0.000
  0.000   0.000  -0.000  -0.000  -0.000  -0.000   0.000  -1.215
 -0.000   0.000   0.000   0.000  -0.000  -0.000  -0.000  -0.000
 -0.000   0.000   0.000  -0.000  -0.000  -0.000   0.000   0.000
 -0.000   0.000   0.000   0.000  -0.000  -0.000  -0.000  -0.000
 -0.000  -0.000  -0.000  -0.000  -0.000   0.000  -0.000  -0.000
 -0.000  -0.000  -0.000  -0.000  -0.000   0.000  -0.000  -0.000
 total augmentation occupancy for first ion, spin component:            1
  1.992  -0.000  -0.000  -0.027   0.000   0.000   0.000   0.000  -0.000   0.000   0.000   0.000   0.000   0.000   0.000   0.000
 -0.000   1.992   0.000   0.000  -0.027  -0.000   0.000   0.000  -0.000   0.000   0.000   0.000  -0.000   0.000   0.000   0.000
 -0.000   0.000   1.992   0.000  -0.000  -0.027   0.000   0.000   0.000   0.000   0.000  -0.000   0.000   0.000   0.000   0.000
 -0.027   0.000   0.000   0.192   0.000   0.000   0.000   0.000  -0.000  -0.000   0.000  -0.000  -0.000   0.000   0.000   0.000
  0.000  -0.027   0.000   0.000   0.192   0.000   0.000   0.000   0.000   0.000   0.000   0.000  -0.000   0.000  -0.000  -0.000
  0.000  -0.000  -0.027   0.000   0.000   0.192   0.000   0.000   0.000  -0.000   0.000  -0.000   0.000   0.000  -0.000   0.000
  0.000   0.000   0.000   0.000   0.000  -0.000   2.135  -0.000   0.000   0.000   0.000  -1.144   0.000  -0.000   0.000  -0.000
  0.000   0.000   0.000  -0.000   0.000   0.000  -0.000   2.135  -0.000   0.000  -0.000   0.000  -1.144   0.000  -0.000  -0.000
  0.000   0.000   0.000   0.000   0.000   0.000  -0.000  -0.000   3.375  -0.000   0.000   0.000  -0.000  -2.119  -0.000  -0.000
  0.000   0.000   0.000   0.000  -0.000   0.000  -0.000   0.000  -0.000   2.135   0.000   0.000   0.000   0.000  -1.144   0.000
 -0.000   0.000  -0.000   0.000   0.000   0.000   0.000  -0.000   0.000   0.000   3.375  -0.000  -0.000   0.000   0.000  -2.119
  0.000   0.000   0.000   0.000   0.000  -0.000  -1.144   0.000   0.000  -0.000  -0.000   1.532   0.000   0.000  -0.000   0.000
  0.000   0.000   0.000  -0.000   0.000   0.000   0.000  -1.144  -0.000  -0.000   0.000   0.000   1.532   0.000  -0.000   0.000
  0.000   0.000   0.000   0.000  -0.000   0.000  -0.000   0.000  -2.119  -0.000  -0.000  -0.000  -0.000   2.120  -0.000   0.000
  0.000   0.000   0.000   0.000  -0.000   0.000  -0.000  -0.000  -0.000  -1.144   0.000  -0.000  -0.000  -0.000   1.532  -0.000
  0.000   0.000   0.000   0.000   0.000   0.000  -0.000  -0.000   0.000   0.000  -2.119  -0.000  -0.000  -0.000  -0.000   2.120
  0.000   0.000   0.000   0.000   0.000   0.000  -0.000  -0.000   0.000   0.000  -0.000  -0.000  -0.000  -0.000   0.000   0.000
  0.000   0.000   0.000  -0.000  -0.000  -0.000  -0.000  -0.000   0.000  -0.000  -0.000  -0.000   0.000   0.000  -0.000  -0.000
 total augmentation occupancy for first ion, spin component:            2
 -0.002  -0.000  -0.000  -0.009   0.000   0.000   0.000  -0.000   0.000   0.000   0.000   0.000   0.000   0.000   0.000   0.000
 -0.000  -0.002  -0.000  -0.000  -0.009  -0.000   0.000   0.000   0.000   0.000   0.000   0.000   0.000   0.000   0.000   0.000
 -0.000  -0.000  -0.002   0.000   0.000  -0.009   0.000   0.000  -0.000   0.000   0.000   0.000   0.000   0.000   0.000   0.000
 -0.009  -0.000   0.000  -0.018   0.000   0.000  -0.000   0.000   0.000   0.000   0.000   0.000   0.000   0.000  -0.000   0.000
 -0.000  -0.009   0.000   0.000  -0.018  -0.000   0.000   0.000   0.000   0.000   0.000   0.000   0.000   0.000   0.000   0.000
  0.000  -0.000  -0.009   0.000   0.000  -0.018   0.000   0.000  -0.000   0.000  -0.000  -0.000  -0.000   0.000   0.000   0.000
  0.000   0.000   0.000   0.000   0.000  -0.000   1.765   0.000   0.000   0.000   0.000  -0.675   0.000  -0.000   0.000  -0.000
  0.000   0.000   0.000   0.000  -0.000   0.000  -0.000   1.765  -0.000   0.000  -0.000  -0.000  -0.675  -0.000   0.000   0.000
  0.000   0.000  -0.000   0.000   0.000   0.000  -0.000   0.000   2.826  -0.000  -0.000   0.000   0.000  -1.150  -0.000  -0.000
  0.000   0.000   0.000  -0.000   0.000  -0.000   0.000   0.000   0.000   1.765  -0.000  -0.000   0.000  -0.000  -0.675  -0.000
  0.000   0.000   0.000   0.000   0.000   0.000   0.000  -0.000   0.000  -0.000   2.826  -0.000  -0.000   0.000   0.000  -1.150
  0.000   0.000   0.000   0.000   0.000   0.000  -0.675  -0.000  -0.000  -0.000  -0.000   0.018   0.000   0.000   0.000   0.000
  0.000   0.000   0.000  -0.000  -0.000  -0.000   0.000  -0.675   0.000   0.000   0.000  -0.000   0.018   0.000   0.000  -0.000
 -0.000   0.000   0.000   0.000  -0.000  -0.000  -0.000  -0.000  -1.150  -0.000  -0.000   0.000   0.000   0.224   0.000  -0.000
  0.000   0.000   0.000   0.000  -0.000  -0.000   0.000   0.000   0.000  -0.675  -0.000  -0.000  -0.000   0.000   0.018   0.000
  0.000   0.000   0.000   0.000   0.000   0.000   0.000   0.000  -0.000   0.000  -1.150  -0.000   0.000  -0.000  -0.000   0.224
  0.000   0.000   0.000   0.000   0.000   0.000   0.000   0.000  -0.000  -0.000  -0.000  -0.000  -0.000   0.000  -0.000  -0.000
  0.000   0.000   0.000   0.000   0.000   0.000  -0.000   0.000   0.000   0.000   0.000   0.000  -0.000  -0.000   0.000  -0.000


------------------------ aborting loop because EDIFF is reached ----------------------------------------


    CHARGE:  cpu time      0.3588: real time      0.3588
    FORLOC:  cpu time      0.0013: real time      0.0013
    FORNL :  cpu time      1.6711: real time      1.6708
    STRESS:  cpu time      4.9871: real time      4.9858
    FORCOR:  cpu time      0.0056: real time      0.0056
    FORHAR:  cpu time      0.0008: real time      0.0008
    MIXING:  cpu time      0.0027: real time      0.0027
    OFIELD:  cpu time      0.0000: real time      0.0000

  FORCE on cell =-STRESS in cart. coord.  units (eV):
  Direction    XX          YY          ZZ          XY          YZ          ZX
  --------------------------------------------------------------------------------------
  Alpha Z   212.97936   212.97936   212.97936
  Ewald   -1194.60572 -1194.60572 -1194.60572     0.00000     0.00000     0.00000
  Hartree   369.34434   369.34434   369.34434    -0.00000    -0.00000    -0.00000
  E(xc)    -179.66748  -179.66748  -179.66748    -0.00000     0.00000     0.00000
  Local     279.14369   279.14369   279.14369    -0.00000    -0.00000     0.00000
  n-local   -60.90071   -55.02978   -51.34635     2.83503    -1.43474     0.63907
  augment   285.46565   285.46565   285.46566    -0.00000     0.00000     0.00000
  Kinetic   283.55789   281.90316   280.97612     2.82211    -0.87255    -0.08877
  Fock        0.00000     0.00000     0.00000     0.00000     0.00000     0.00000
  -------------------------------------------------------------------------------------
  Total      -0.95337    -0.95337    -0.95337     0.00000    -0.00000    -0.00000
  in kB     -64.88474   -64.88474   -64.88474     0.00000    -0.00000    -0.00000
  external pressure =      -64.88 kB  Pullay stress =        0.00 kB


 VOLUME and BASIS-vectors are now :
 -----------------------------------------------------------------------------
  energy-cutoff  :      520.00
  volume of cell :       23.54
      direct lattice vectors                 reciprocal lattice vectors
     2.866000000  0.000000000  0.000000000     0.348918353  0.000000000  0.000000000
     0.000000000  2.866000000  0.000000000     0.000000000  0.348918353  0.000000000
     0.000000000  0.000000000  2.866000000     0.000000000  0.000000000  0.348918353

  length of vectors
     2.866000000  2.866000000  2.866000000     0.348918353  0.348918353  0.348918353


 FORCES acting on ions
    electron-ion (+dipol)            ewald-force                    non-local-force                 convergence-correction
 -----------------------------------------------------------------------------------------------
   -.150E-13 -.373E-13 -.825E-13   -.128E-13 0.477E-14 -.543E-14   0.550E-24 0.000E+00 0.000E+00   -.156E-13 -.335E-14 -.482E-13
   0.827E-12 0.138E-11 -.582E-11   0.165E-13 -.529E-14 0.882E-14   -.510E-24 0.000E+00 -.414E-24   -.449E-13 -.136E-14 -.347E-13
 -----------------------------------------------------------------------------------------------
   0.812E-12 0.134E-11 -.590E-11   0.372E-14 -.523E-15 0.338E-14   0.396E-25 0.000E+00 -.414E-24   -.605E-13 -.471E-14 -.829E-13
 
 
 POSITION                                       TOTAL-FORCE (eV/Angst)
 -----------------------------------------------------------------------------------
      0.00000      0.00000      0.00000         0.000000      0.000000      0.000000
      1.43300      1.43300      1.43300        -0.000000     -0.000000     -0.000000
 -----------------------------------------------------------------------------------
    total drift:                                0.000000      0.000000     -0.000000


--------------------------------------------------------------------------------------------------------



  FREE ENERGIE OF THE ION-ELECTRON SYSTEM (eV)
  ---------------------------------------------------
  free  energy   TOTEN  =       -16.52230446 eV

  energy  without entropy=      -16.52184783  energy(sigma->0) =      -16.52215225
 


--------------------------------------------------------------------------------------------------------


    POTLOK:  cpu time      0.2524: real time      0.2524


--------------------------------------------------------------------------------------------------------


     LOOP+:  cpu time    104.7077: real time    104.6830
    4ORBIT:  cpu time      0.0000: real time      0.0000

 total amount of memory used by VASP MPI-rank0   113756. kBytes
=======================================================================

   base                                    :      30000. kBytes
   nonlr-proj                              :       2506. kBytes
   fftplans                                :      16524. kBytes
   grid                                    :       9345. kBytes
   one-center                              :         62. kBytes
   wavefun                                 :      55319. kBytes
 
  
  
 General timing and accounting informations for this job:
 ========================================================
  
                  Total CPU time used (sec):      107.159
                            User time (sec):      106.610
                          System time (sec):        0.548
                         Elapsed time (sec):      107.127
  
                   Maximum memory used (kb):     1619260.
                   Average memory used (kb):          N/A
  
                          Minor page faults:       359005
                          Major page faults:            0
                 Voluntary context switches:         2256
