[LOG_CAT_ML] You must specify a valid HCA device by setting:
-x HCOLL_MAIN_IB=<dev_name:port> or -x UCX_NET_DEVICES=<dev_name:port>.
If no device was specified for HCOLL (or the calling library), automatic device detection will be run.
In case of unfounded HCA device please contact your system administrator.
[LOG_CAT_ML] You must specify a valid HCA device by setting:
-x HCOLL_MAIN_IB=<dev_name:port> or -x UCX_NET_DEVICES=<dev_name:port>.
If no device was specified for HCOLL (or the calling library), automatic device detection will be run.
In case of unfounded HCA device please contact your system administrator.
[LOG_CAT_ML] You must specify a valid HCA device by setting:
-x HCOLL_MAIN_IB=<dev_name:port> or -x UCX_NET_DEVICES=<dev_name:port>.
If no device was specified for HCOLL (or the calling library), automatic device detection will be run.
In case of unfounded HCA device please contact your system administrator.
[LOG_CAT_ML] You must specify a valid HCA device by setting:
-x HCOLL_MAIN_IB=<dev_name:port> or -x UCX_NET_DEVICES=<dev_name:port>.
If no device was specified for HCOLL (or the calling library), automatic device detection will be run.
In case of unfounded HCA device please contact your system administrator.
[LOG_CAT_ML] You must specify a valid HCA device by setting:
-x HCOLL_MAIN_IB=<dev_name:port> or -x UCX_NET_DEVICES=<dev_name:port>.
If no device was specified for HCOLL (or the calling library), automatic device detection will be run.
In case of unfounded HCA device please contact your system administrator.
[LOG_CAT_ML] You must specify a valid HCA device by setting:
-x HCOLL_MAIN_IB=<dev_name:port> or -x UCX_NET_DEVICES=<dev_name:port>.
If no device was specified for HCOLL (or the calling library), automatic device detection will be run.
In case of unfounded HCA device please contact your system administrator.
[LOG_CAT_ML] You must specify a valid HCA device by setting:
-x HCOLL_MAIN_IB=<dev_name:port> or -x UCX_NET_DEVICES=<dev_name:port>.
If no device was specified for HCOLL (or the calling library), automatic device detection will be run.
In case of unfounded HCA device please contact your system administrator.
[LOG_CAT_ML] You must specify a valid HCA device by setting:
-x HCOLL_MAIN_IB=<dev_name:port> or -x UCX_NET_DEVICES=<dev_name:port>.
If no device was specified for HCOLL (or the calling library), automatic device detection will be run.
In case of unfounded HCA device please contact your system administrator.
[student3-ThinkStation-P3-Tower:500104] Error: ../../../../../ompi/mca/coll/hcoll/coll_hcoll_module.c:310 - mca_coll_hcoll_comm_query() Hcol library init failed
[student3-ThinkStation-P3-Tower:500099] Error: ../../../../../ompi/mca/coll/hcoll/coll_hcoll_module.c:310 - mca_coll_hcoll_comm_query() Hcol library init failed
[student3-ThinkStation-P3-Tower:500097] Error: ../../../../../ompi/mca/coll/hcoll/coll_hcoll_module.c:310 - mca_coll_hcoll_comm_query() Hcol library init failed
[student3-ThinkStation-P3-Tower:500094] Error: ../../../../../ompi/mca/coll/hcoll/coll_hcoll_module.c:310 - mca_coll_hcoll_comm_query() Hcol library init failed
[student3-ThinkStation-P3-Tower:500101] Error: ../../../../../ompi/mca/coll/hcoll/coll_hcoll_module.c:310 - mca_coll_hcoll_comm_query() Hcol library init failed
[student3-ThinkStation-P3-Tower:500093] Error: ../../../../../ompi/mca/coll/hcoll/coll_hcoll_module.c:310 - mca_coll_hcoll_comm_query() Hcol library init failed
[student3-ThinkStation-P3-Tower:500095] Error: ../../../../../ompi/mca/coll/hcoll/coll_hcoll_module.c:310 - mca_coll_hcoll_comm_query() Hcol library init failed
[student3-ThinkStation-P3-Tower:500092] Error: ../../../../../ompi/mca/coll/hcoll/coll_hcoll_module.c:310 - mca_coll_hcoll_comm_query() Hcol library init failed
[LOG_CAT_ML] You must specify a valid HCA device by setting:
-x HCOLL_MAIN_IB=<dev_name:port> or -x UCX_NET_DEVICES=<dev_name:port>.
If no device was specified for HCOLL (or the calling library), automatic device detection will be run.
In case of unfounded HCA device please contact your system administrator.
[LOG_CAT_ML] You must specify a valid HCA device by setting:
-x HCOLL_MAIN_IB=<dev_name:port> or -x UCX_NET_DEVICES=<dev_name:port>.
If no device was specified for HCOLL (or the calling library), automatic device detection will be run.
In case of unfounded HCA device please contact your system administrator.
[LOG_CAT_ML] You must specify a valid HCA device by setting:
-x HCOLL_MAIN_IB=<dev_name:port> or -x UCX_NET_DEVICES=<dev_name:port>.
If no device was specified for HCOLL (or the calling library), automatic device detection will be run.
In case of unfounded HCA device please contact your system administrator.
[LOG_CAT_ML] You must specify a valid HCA device by setting:
-x HCOLL_MAIN_IB=<dev_name:port> or -x UCX_NET_DEVICES=<dev_name:port>.
If no device was specified for HCOLL (or the calling library), automatic device detection will be run.
In case of unfounded HCA device please contact your system administrator.
[LOG_CAT_ML] You must specify a valid HCA device by setting:
-x HCOLL_MAIN_IB=<dev_name:port> or -x UCX_NET_DEVICES=<dev_name:port>.
If no device was specified for HCOLL (or the calling library), automatic device detection will be run.
In case of unfounded HCA device please contact your system administrator.
[LOG_CAT_ML] You must specify a valid HCA device by setting:
-x HCOLL_MAIN_IB=<dev_name:port> or -x UCX_NET_DEVICES=<dev_name:port>.
If no device was specified for HCOLL (or the calling library), automatic device detection will be run.
In case of unfounded HCA device please contact your system administrator.
[LOG_CAT_ML] You must specify a valid HCA device by setting:
-x HCOLL_MAIN_IB=<dev_name:port> or -x UCX_NET_DEVICES=<dev_name:port>.
If no device was specified for HCOLL (or the calling library), automatic device detection will be run.
In case of unfounded HCA device please contact your system administrator.
[student3-ThinkStation-P3-Tower:500117] Error: ../../../../../ompi/mca/coll/hcoll/coll_hcoll_module.c:310 - mca_coll_hcoll_comm_query() Hcol library init failed
[student3-ThinkStation-P3-Tower:500111] Error: ../../../../../ompi/mca/coll/hcoll/coll_hcoll_module.c:310 - mca_coll_hcoll_comm_query() Hcol library init failed
[student3-ThinkStation-P3-Tower:500108] Error: ../../../../../ompi/mca/coll/hcoll/coll_hcoll_module.c:310 - mca_coll_hcoll_comm_query() Hcol library init failed
[LOG_CAT_ML] You must specify a valid HCA device by setting:
-x HCOLL_MAIN_IB=<dev_name:port> or -x UCX_NET_DEVICES=<dev_name:port>.
If no device was specified for HCOLL (or the calling library), automatic device detection will be run.
In case of unfounded HCA device please contact your system administrator.
[student3-ThinkStation-P3-Tower:500121] Error: ../../../../../ompi/mca/coll/hcoll/coll_hcoll_module.c:310 - mca_coll_hcoll_comm_query() Hcol library init failed
[student3-ThinkStation-P3-Tower:500133] Error: ../../../../../ompi/mca/coll/hcoll/coll_hcoll_module.c:310 - mca_coll_hcoll_comm_query() Hcol library init failed
[student3-ThinkStation-P3-Tower:500127] Error: ../../../../../ompi/mca/coll/hcoll/coll_hcoll_module.c:310 - mca_coll_hcoll_comm_query() Hcol library init failed
[student3-ThinkStation-P3-Tower:500124] Error: ../../../../../ompi/mca/coll/hcoll/coll_hcoll_module.c:310 - mca_coll_hcoll_comm_query() Hcol library init failed
[student3-ThinkStation-P3-Tower:500130] Error: ../../../../../ompi/mca/coll/hcoll/coll_hcoll_module.c:310 - mca_coll_hcoll_comm_query() Hcol library init failed
 running   16 mpi-ranks, on    1 nodes
 distrk:  each k-point on   16 cores,    1 groups
 distr:  one band on    2 cores,    8 groups
 vasp.6.5.1 10Mar25 (build Jul 20 2026 11:14:49) complex                         
 POSCAR found type information on POSCAR FeCo
 POSCAR found :  2 types and      16 ions
 scaLAPACK will be used
 LDA part: xc-table for (Slater+PW92), standard interpolation
 POSCAR, INCAR and KPOINTS ok, starting setup
 FFT: planning ... GRIDC
 FFT: planning ... GRID_SOFT
 FFT: planning ... GRID
 WAVECAR not read
 entering main loop
       N       E                     dE             d eps       ncg     rms          rms(c)
DAV:   1     0.227674974167E+04    0.22767E+04   -0.76072E+04283880   0.194E+03
DAV:   2     0.202867215458E+03   -0.20739E+04   -0.19691E+04262144   0.546E+02
DAV:   3    -0.116446201109E+03   -0.31931E+03   -0.26050E+03263264   0.218E+02
DAV:   4    -0.138459567035E+03   -0.22013E+02   -0.21178E+02280872   0.653E+01
DAV:   5    -0.138969503401E+03   -0.50994E+00   -0.50892E+00303352   0.103E+01    0.437E+01
DAV:   6    -0.150117182692E+03   -0.11148E+02   -0.64823E+01278688   0.783E+01    0.624E+01
DAV:   7    -0.255425582059E+03   -0.10531E+03   -0.18982E+02300296   0.171E+02    0.125E+02
DAV:   8    -0.180643530762E+03    0.74782E+02   -0.61553E+01315456   0.957E+01    0.792E+01
DAV:   9    -0.176008334226E+03    0.46352E+01   -0.44728E+01355344   0.115E+02    0.900E+01
DAV:  10    -0.135135411241E+03    0.40873E+02   -0.31773E+01340760   0.558E+01    0.559E+01
DAV:  11    -0.160061397590E+03   -0.24926E+02   -0.32698E+01368736   0.104E+02    0.780E+01
DAV:  12    -0.129390887852E+03    0.30671E+02   -0.14369E+01347128   0.499E+01    0.400E+01
DAV:  13    -0.130117288892E+03   -0.72640E+00   -0.10270E+01333024   0.489E+01    0.434E+01
DAV:  14    -0.123205436919E+03    0.69119E+01   -0.52609E+00338384   0.382E+01    0.225E+01
DAV:  15    -0.122507482979E+03    0.69795E+00   -0.13387E+00273328   0.120E+01    0.177E+01
DAV:  16    -0.122915781437E+03   -0.40830E+00   -0.14956E+00278608   0.107E+01    0.197E+01
DAV:  17    -0.130244720727E+03   -0.73289E+01   -0.65366E+00292624   0.364E+01    0.441E+01
DAV:  18    -0.123795876257E+03    0.64488E+01   -0.32197E+00294192   0.381E+01    0.216E+01
DAV:  19    -0.127016905633E+03   -0.32210E+01   -0.12392E+01319768   0.283E+01    0.308E+01
DAV:  20    -0.124276712737E+03    0.27402E+01   -0.12863E+00281144   0.163E+01    0.241E+01
DAV:  21    -0.124056974376E+03    0.21974E+00   -0.13935E+00282704   0.116E+01    0.231E+01
DAV:  22    -0.123412277996E+03    0.64470E+00   -0.13742E+00316176   0.164E+01    0.179E+01
DAV:  23    -0.123082021786E+03    0.33026E+00   -0.50483E-01311408   0.129E+01    0.154E+01
DAV:  24    -0.123299526133E+03   -0.21750E+00   -0.30916E-01368416   0.100E+01    0.157E+01
DAV:  25    -0.123166758101E+03    0.13277E+00   -0.22657E-01324592   0.114E+01    0.144E+01
DAV:  26    -0.123218604318E+03   -0.51846E-01   -0.18209E-01295224   0.879E+00    0.145E+01
DAV:  27    -0.123005914977E+03    0.21269E+00   -0.19741E-01340408   0.953E+00    0.126E+01
DAV:  28    -0.122818365177E+03    0.18755E+00   -0.22858E-01371448   0.773E+00    0.923E+00
DAV:  29    -0.122720667313E+03    0.97698E-01   -0.77157E-02381624   0.363E+00    0.786E+00
DAV:  30    -0.122796361186E+03   -0.75694E-01   -0.45095E-02307280   0.347E+00    0.913E+00
DAV:  31    -0.122737757844E+03    0.58603E-01   -0.74272E-02301048   0.572E+00    0.864E+00
DAV:  32    -0.122534077039E+03    0.20368E+00   -0.97120E-02353672   0.547E+00    0.783E+00
DAV:  33    -0.122491835975E+03    0.42241E-01   -0.48867E-02372600   0.345E+00    0.789E+00
DAV:  34    -0.122469442513E+03    0.22393E-01   -0.18233E-02296352   0.148E+00    0.792E+00
DAV:  35    -0.122468601164E+03    0.84135E-03   -0.37293E-03272392   0.316E-01    0.792E+00
DAV:  36    -0.122478892657E+03   -0.10291E-01   -0.27579E-03379688   0.555E-01    0.794E+00
DAV:  37    -0.122475426773E+03    0.34659E-02   -0.83602E-04368608   0.233E-01    0.792E+00
DAV:  38    -0.122426331616E+03    0.49095E-01   -0.41034E-02311536   0.282E+00    0.813E+00
DAV:  39    -0.122327805016E+03    0.98527E-01   -0.69680E-02289616   0.327E+00    0.740E+00
DAV:  40    -0.122320599479E+03    0.72055E-02   -0.68933E-02370200   0.300E+00    0.703E+00
DAV:  41    -0.122288590327E+03    0.32009E-01   -0.32327E-02360088   0.282E+00    0.639E+00
DAV:  42    -0.122247672050E+03    0.40918E-01   -0.37185E-02303120   0.220E+00    0.557E+00
DAV:  43    -0.122202166792E+03    0.45505E-01   -0.45842E-02311240   0.257E+00    0.419E+00
DAV:  44    -0.122194612594E+03    0.75542E-02   -0.83722E-02310400   0.187E+00    0.271E+00
DAV:  45    -0.122200733358E+03   -0.61208E-02   -0.27716E-02373784   0.264E+00    0.269E+00
DAV:  46    -0.122181801485E+03    0.18932E-01   -0.38904E-02365440   0.248E+00    0.184E+00
DAV:  47    -0.122186776638E+03   -0.49752E-02   -0.26877E-02313640   0.211E+00    0.210E+00
DAV:  48    -0.122173520139E+03    0.13256E-01   -0.67714E-02328784   0.214E+00    0.129E+00
DAV:  49    -0.122176444827E+03   -0.29247E-02   -0.48663E-02276784   0.152E+00    0.137E+00
DAV:  50    -0.122173341264E+03    0.31036E-02   -0.98612E-03275184   0.118E+00    0.937E-01
DAV:  51    -0.122172783904E+03    0.55736E-03   -0.27981E-02271416   0.772E-01    0.545E-01
DAV:  52    -0.122172915662E+03   -0.13176E-03   -0.57158E-03329096   0.587E-01    0.557E-01
DAV:  53    -0.122172659474E+03    0.25619E-03   -0.60412E-03320824   0.524E-01    0.478E-01
DAV:  54    -0.122172944315E+03   -0.28484E-03   -0.13518E-02268080   0.554E-01    0.477E-01
DAV:  55    -0.122173344497E+03   -0.40018E-03   -0.29397E-03274080   0.491E-01    0.521E-01
DAV:  56    -0.122173882220E+03   -0.53772E-03   -0.31926E-02269056   0.748E-01    0.721E-01
DAV:  57    -0.122173496120E+03    0.38610E-03   -0.98973E-03266360   0.425E-01    0.479E-01
DAV:  58    -0.122173709993E+03   -0.21387E-03   -0.36305E-03275552   0.422E-01    0.441E-01
DAV:  59    -0.122172885364E+03    0.82463E-03   -0.12466E-02278256   0.507E-01    0.356E-01
DAV:  60    -0.122172949802E+03   -0.64438E-04   -0.31796E-03331504   0.510E-01    0.351E-01
DAV:  61    -0.122173023490E+03   -0.73688E-04   -0.13615E-02273816   0.514E-01    0.293E-01
DAV:  62    -0.122173174559E+03   -0.15107E-03   -0.12608E-02265656   0.447E-01    0.243E-01
DAV:  63    -0.122173429475E+03   -0.25492E-03   -0.19416E-03268672   0.332E-01    0.264E-01
DAV:  64    -0.122173057599E+03    0.37188E-03   -0.61863E-03263520   0.352E-01    0.120E-01
DAV:  65    -0.122173580119E+03   -0.52252E-03   -0.42136E-03265056   0.244E-01    0.298E-01
DAV:  66    -0.122173346536E+03    0.23358E-03   -0.29769E-03271392   0.270E-01    0.142E-01
DAV:  67    -0.122173399781E+03   -0.53245E-04   -0.91460E-04322560   0.205E-01    0.122E-01
DAV:  68    -0.122173276391E+03    0.12339E-03   -0.28003E-03269192   0.185E-01    0.106E-01
DAV:  69    -0.122173354645E+03   -0.78255E-04   -0.21071E-03267552   0.153E-01    0.970E-02
DAV:  70    -0.122173551932E+03   -0.19729E-03   -0.12892E-03268688   0.119E-01    0.763E-02
DAV:  71    -0.122173500145E+03    0.51787E-04   -0.32249E-04273824   0.104E-01    0.953E-02
DAV:  72    -0.122173532889E+03   -0.32744E-04   -0.31780E-04267864   0.992E-02    0.673E-02
DAV:  73    -0.122173585894E+03   -0.53005E-04   -0.22953E-04269640   0.699E-02    0.544E-02
DAV:  74    -0.122173611864E+03   -0.25970E-04   -0.22036E-04266512   0.567E-02    0.492E-02
DAV:  75    -0.122173640864E+03   -0.29000E-04   -0.23450E-04267216   0.535E-02    0.470E-02
DAV:  76    -0.122173634826E+03    0.60383E-05   -0.12534E-04270848   0.550E-02    0.375E-02
DAV:  77    -0.122173646873E+03   -0.12048E-04   -0.20666E-04266592   0.536E-02    0.356E-02
DAV:  78    -0.122173684869E+03   -0.37996E-04   -0.59478E-05254864   0.352E-02    0.347E-02
DAV:  79    -0.122173690078E+03   -0.52090E-05   -0.36512E-05240632   0.230E-02    0.325E-02
DAV:  80    -0.122173684188E+03    0.58901E-05   -0.74721E-06248216   0.992E-03    0.350E-02
DAV:  81    -0.122173654883E+03    0.29304E-04   -0.63444E-05252832   0.301E-02    0.426E-02
DAV:  82    -0.122173667878E+03   -0.12995E-04   -0.29784E-05250952   0.284E-02    0.339E-02
DAV:  83    -0.122173658137E+03    0.97413E-05   -0.27257E-05244856   0.203E-02    0.338E-02
DAV:  84    -0.122173659118E+03   -0.98163E-06   -0.39246E-05241672   0.250E-02    0.323E-02
DAV:  85    -0.122173661957E+03   -0.28385E-05   -0.61994E-05239600   0.271E-02    0.316E-02
DAV:  86    -0.122173656212E+03    0.57450E-05   -0.74709E-05249264   0.308E-02    0.389E-02
DAV:  87    -0.122173656706E+03   -0.49396E-06   -0.31111E-05246440   0.266E-02    0.332E-02
DAV:  88    -0.122173648251E+03    0.84553E-05   -0.30274E-05239536   0.202E-02    0.327E-02
DAV:  89    -0.122173646760E+03    0.14904E-05   -0.35357E-05240304   0.211E-02    0.324E-02
DAV:  90    -0.122173639727E+03    0.70332E-05   -0.49340E-05239320   0.222E-02    0.322E-02
DAV:  91    -0.122173624937E+03    0.14790E-04   -0.60100E-05246536   0.283E-02    0.407E-02
DAV:  92    -0.122173631399E+03   -0.64617E-05   -0.46477E-05244432   0.293E-02    0.332E-02
DAV:  93    -0.122173627070E+03    0.43290E-05   -0.38524E-05240512   0.230E-02    0.326E-02
DAV:  94    -0.122173625223E+03    0.18471E-05   -0.29687E-05239960   0.185E-02    0.322E-02
DAV:  95    -0.122173630197E+03   -0.49739E-05   -0.36254E-05239000   0.200E-02    0.308E-02
DAV:  96    -0.122173617387E+03    0.12810E-04   -0.77160E-05246528   0.290E-02    0.338E-02
DAV:  97    -0.122173626066E+03   -0.86794E-05   -0.38919E-05238896   0.252E-02    0.323E-02
DAV:  98    -0.122173623076E+03    0.29902E-05   -0.30254E-05238656   0.203E-02    0.321E-02
DAV:  99    -0.122173619662E+03    0.34135E-05   -0.25489E-05239088   0.178E-02    0.321E-02
DAV: 100    -0.122173625138E+03   -0.54762E-05   -0.23760E-05238984   0.164E-02    0.305E-02
DAV: 101    -0.122173630627E+03   -0.54886E-05   -0.31531E-05238704   0.208E-02    0.318E-02
DAV: 102    -0.122173633419E+03   -0.27915E-05   -0.26315E-05238640   0.208E-02    0.294E-02
DAV: 103    -0.122173634164E+03   -0.74497E-06   -0.11194E-05238976   0.131E-02    0.296E-02
DAV: 104    -0.122173634555E+03   -0.39171E-06   -0.14790E-05238760   0.135E-02    0.293E-02
DAV: 105    -0.122173637601E+03   -0.30459E-05   -0.21901E-05238672   0.153E-02    0.282E-02
DAV: 106    -0.122173638941E+03   -0.13394E-05   -0.44196E-05238776   0.240E-02    0.305E-02
DAV: 107    -0.122173645677E+03   -0.67363E-05   -0.23727E-05243728   0.238E-02    0.272E-02
DAV: 108    -0.122173653677E+03   -0.80005E-05   -0.18403E-05238656   0.159E-02    0.262E-02
DAV: 109    -0.122173654839E+03   -0.11618E-05   -0.20899E-05238608   0.155E-02    0.256E-02
DAV: 110    -0.122173656607E+03   -0.17681E-05   -0.21181E-05238608   0.152E-02    0.268E-02
DAV: 111    -0.122173649604E+03    0.70029E-05   -0.19217E-05239776   0.158E-02    0.282E-02
DAV: 112    -0.122173655491E+03   -0.58866E-05   -0.19408E-05239472   0.171E-02    0.278E-02
DAV: 113    -0.122173658171E+03   -0.26801E-05   -0.11246E-05238672   0.120E-02    0.277E-02
DAV: 114    -0.122173660007E+03   -0.18358E-05   -0.54205E-06238840   0.819E-03    0.279E-02
DAV: 115    -0.122173660695E+03   -0.68803E-06   -0.51604E-06238952   0.784E-03
   1 F= -.12217366E+03 E0= -.12217340E+03  d E =-.770921E-03  mag=     0.0206     0.0000    33.3308
