       N       E                     dE             d eps       ncg     rms          rms(c)
DAV:   1     0.151519569317E+05    0.15152E+05   -0.50402E+05101696   0.208E+03
DAV:   2     0.155294623747E+04   -0.13599E+05   -0.12938E+05 96256   0.595E+02
DAV:   3    -0.660824054190E+03   -0.22138E+04   -0.18161E+04 96256   0.247E+02
DAV:   4    -0.862846708351E+03   -0.20202E+03   -0.18849E+03106448   0.802E+01
DAV:   5    -0.869655838001E+03   -0.68091E+01   -0.67394E+01111480   0.145E+01    0.113E+02
DAV:   6    -0.894827294594E+03   -0.25171E+02   -0.11258E+03105248   0.115E+02    0.183E+02
DAV:   7    -0.942049774381E+03   -0.47222E+02   -0.48787E+02107088   0.131E+02    0.177E+02
DAV:   8    -0.852759354405E+03    0.89290E+02   -0.17558E+02122928   0.798E+01    0.126E+02
DAV:   9    -0.785633969277E+03    0.67125E+02   -0.10655E+02125520   0.708E+01    0.979E+01
DAV:  10    -0.815089685567E+03   -0.29456E+02   -0.10954E+02133928   0.645E+01    0.119E+02
DAV:  11    -0.774377924115E+03    0.40712E+02   -0.56706E+01110032   0.457E+01    0.724E+01
DAV:  12    -0.755659520158E+03    0.18718E+02   -0.27016E+01112896   0.337E+01    0.449E+01
DAV:  13    -0.756705156072E+03   -0.10456E+01   -0.17998E+01112096   0.262E+01    0.473E+01
DAV:  14    -0.751236059707E+03    0.54691E+01   -0.98401E+00107992   0.195E+01    0.261E+01
DAV:  15    -0.751766110935E+03   -0.53005E+00   -0.41083E+00113544   0.126E+01    0.245E+01
DAV:  16    -0.751625888011E+03    0.14022E+00   -0.23710E+00114256   0.872E+00    0.199E+01
DAV:  17    -0.751561159872E+03    0.64728E-01   -0.10286E+00104640   0.574E+00    0.178E+01
DAV:  18    -0.751917893112E+03   -0.35673E+00   -0.58731E-01111512   0.384E+00    0.178E+01
DAV:  19    -0.752173731311E+03   -0.25584E+00   -0.49603E-01110096   0.368E+00    0.155E+01
DAV:  20    -0.752936514211E+03   -0.76278E+00   -0.71498E-01111944   0.555E+00    0.179E+01
DAV:  21    -0.754004218041E+03   -0.10677E+01   -0.16924E+00113664   0.796E+00    0.172E+01
DAV:  22    -0.753947553419E+03    0.56665E-01   -0.18322E+00110176   0.884E+00    0.128E+01
DAV:  23    -0.754339982490E+03   -0.39243E+00   -0.14425E+00114008   0.726E+00    0.137E+01
DAV:  24    -0.753876406115E+03    0.46358E+00   -0.11260E+00109312   0.603E+00    0.821E+00
DAV:  25    -0.753831564656E+03    0.44841E-01   -0.44461E-01111888   0.367E+00    0.670E+00
DAV:  26    -0.753897579079E+03   -0.66014E-01   -0.34809E-01120656   0.346E+00    0.664E+00
DAV:  27    -0.753819698246E+03    0.77881E-01   -0.21455E-01109088   0.319E+00    0.450E+00
DAV:  28    -0.753908553380E+03   -0.88855E-01   -0.18091E-01114056   0.309E+00    0.574E+00
DAV:  29    -0.753869077787E+03    0.39476E-01   -0.14738E-01109736   0.275E+00    0.384E+00
DAV:  30    -0.753857070667E+03    0.12007E-01   -0.76816E-02110440   0.214E+00    0.321E+00
DAV:  31    -0.753889222743E+03   -0.32152E-01   -0.69196E-02122184   0.187E+00    0.346E+00
DAV:  32    -0.753863853622E+03    0.25369E-01   -0.44934E-02109744   0.164E+00    0.212E+00
DAV:  33    -0.753875412751E+03   -0.11559E-01   -0.26108E-02120680   0.112E+00    0.220E+00
DAV:  34    -0.753879930917E+03   -0.45182E-02   -0.27708E-02115976   0.117E+00    0.188E+00
DAV:  35    -0.753878251641E+03    0.16793E-02   -0.18705E-02110432   0.103E+00    0.150E+00
DAV:  36    -0.753884243479E+03   -0.59918E-02   -0.17897E-02123576   0.947E-01    0.162E+00
DAV:  37    -0.753877297841E+03    0.69456E-02   -0.11363E-02109912   0.841E-01    0.798E-01
DAV:  38    -0.753882165334E+03   -0.48675E-02   -0.79674E-03117080   0.645E-01    0.124E+00
DAV:  39    -0.753877824873E+03    0.43405E-02   -0.57234E-03109728   0.580E-01    0.538E-01
DAV:  40    -0.753878920691E+03   -0.10958E-02   -0.34066E-03110832   0.448E-01    0.693E-01
DAV:  41    -0.753878201190E+03    0.71950E-03   -0.27073E-03111008   0.379E-01    0.488E-01
DAV:  42    -0.753877446607E+03    0.75458E-03   -0.12152E-03109344   0.262E-01    0.225E-01
DAV:  43    -0.753877824862E+03   -0.37826E-03   -0.82036E-04110184   0.202E-01    0.338E-01
DAV:  44    -0.753877462650E+03    0.36221E-03   -0.53033E-04108584   0.175E-01    0.141E-01
DAV:  45    -0.753877482923E+03   -0.20273E-04   -0.21758E-04110192   0.108E-01    0.140E-01
DAV:  46    -0.753877481415E+03    0.15079E-05   -0.14855E-04111552   0.890E-02    0.122E-01
DAV:  47    -0.753877434471E+03    0.46944E-04   -0.76198E-05108024   0.691E-02    0.515E-02
DAV:  48    -0.753877454973E+03   -0.20502E-04   -0.35146E-05118920   0.430E-02    0.774E-02
DAV:  49    -0.753877436805E+03    0.18168E-04   -0.23537E-05108448   0.374E-02    0.301E-02
DAV:  50    -0.753877439584E+03   -0.27786E-05   -0.93946E-06107296   0.227E-02    0.344E-02
DAV:  51    -0.753877438631E+03    0.95312E-06   -0.79730E-06 97872   0.202E-02
   1 F= -.75387744E+03 E0= -.75387684E+03  d E =-.179534E-02  mag=   135.2282
