Fe Co Ni Mn Al Si
 1.0000000000000000
    10.6499999999999986    0.0000000000000000    0.0000000000000000
     0.0000000000000000   10.6499999999999986    0.0000000000000000
     0.0000000000000000    0.0000000000000000   10.6499999999999986
 Fe  Co  Ni  Mn  Al  Si 
  28  48  12   2   5  13
Direct
  0.0000000000000000  0.1666666666666667  0.1666666666666667
  0.0000000000000000  0.0000000000000000  0.6666666666666667
  0.1666666666666667  0.3333333333333334  0.1666666666666667
  0.1666666666666667  0.5000000000000000  0.0000000000000000
  0.0000000000000000  0.3333333333333334  0.3333333333333334
  0.0000000000000000  0.5000000000000000  0.5000000000000000
  0.0000000000000000  0.3333333333333334  0.6666666666666667
  0.1666666666666667  0.3333333333333334  0.8333333333333334
  0.0000000000000000  0.8333333333333334  0.1666666666666667
  0.1666666666666667  0.6666666666666667  0.1666666666666667
  0.3333333333333334  0.0000000000000000  0.6666666666666667
  0.5000000000000000  0.1666666666666667  0.6666666666666667
  0.5000000000000000  0.5000000000000000  0.3333333333333334
  0.5000000000000000  0.8333333333333334  0.0000000000000000
  0.3333333333333334  0.6666666666666667  0.3333333333333334
  0.6666666666666667  0.0000000000000000  0.0000000000000000
  0.8333333333333334  0.0000000000000000  0.1666666666666667
  0.6666666666666667  0.1666666666666667  0.5000000000000000
  0.8333333333333334  0.0000000000000000  0.5000000000000000
  0.8333333333333334  0.1666666666666667  0.6666666666666667
  0.6666666666666667  0.3333333333333334  0.0000000000000000
  0.8333333333333334  0.3333333333333334  0.1666666666666667
  0.8333333333333334  0.3333333333333334  0.5000000000000000
  0.8333333333333334  0.5000000000000000  0.3333333333333334
  0.6666666666666667  0.3333333333333334  0.6666666666666667
  0.8333333333333334  0.6666666666666667  0.1666666666666667
  0.6666666666666667  0.8333333333333334  0.8333333333333334
  0.8333333333333334  0.6666666666666667  0.8333333333333334
  0.0000000000000000  0.0000000000000000  0.0000000000000000
  0.1666666666666667  0.0000000000000000  0.8333333333333334
  0.0000000000000000  0.5000000000000000  0.1666666666666667
  0.1666666666666667  0.3333333333333334  0.5000000000000000
  0.1666666666666667  0.5000000000000000  0.3333333333333334
  0.0000000000000000  0.5000000000000000  0.8333333333333334
  0.0000000000000000  0.6666666666666667  0.0000000000000000
  0.1666666666666667  0.8333333333333334  0.0000000000000000
  0.0000000000000000  0.6666666666666667  0.3333333333333334
  0.1666666666666667  0.8333333333333334  0.3333333333333334
  0.0000000000000000  0.6666666666666667  0.6666666666666667
  0.0000000000000000  0.8333333333333334  0.8333333333333334
  0.3333333333333334  0.1666666666666667  0.1666666666666667
  0.5000000000000000  0.0000000000000000  0.1666666666666667
  0.3333333333333334  0.0000000000000000  0.3333333333333334
  0.3333333333333334  0.1666666666666667  0.5000000000000000
  0.5000000000000000  0.1666666666666667  0.3333333333333334
  0.3333333333333334  0.1666666666666667  0.8333333333333334
  0.3333333333333334  0.3333333333333334  0.0000000000000000
  0.5000000000000000  0.3333333333333334  0.1666666666666667
  0.3333333333333334  0.3333333333333334  0.6666666666666667
  0.5000000000000000  0.3333333333333334  0.8333333333333334
  0.5000000000000000  0.5000000000000000  0.6666666666666667
  0.3333333333333334  0.8333333333333334  0.1666666666666667
  0.5000000000000000  0.6666666666666667  0.1666666666666667
  0.3333333333333334  0.8333333333333334  0.5000000000000000
  0.5000000000000000  0.6666666666666667  0.5000000000000000
  0.5000000000000000  0.8333333333333334  0.3333333333333334
  0.3333333333333334  0.6666666666666667  0.6666666666666667
  0.3333333333333334  0.8333333333333334  0.8333333333333334
  0.5000000000000000  0.6666666666666667  0.8333333333333334
  0.5000000000000000  0.8333333333333334  0.6666666666666667
  0.6666666666666667  0.1666666666666667  0.1666666666666667
  0.8333333333333334  0.1666666666666667  0.0000000000000000
  0.8333333333333334  0.1666666666666667  0.3333333333333334
  0.6666666666666667  0.0000000000000000  0.6666666666666667
  0.6666666666666667  0.1666666666666667  0.8333333333333334
  0.6666666666666667  0.5000000000000000  0.1666666666666667
  0.8333333333333334  0.5000000000000000  0.0000000000000000
  0.6666666666666667  0.5000000000000000  0.8333333333333334
  0.8333333333333334  0.5000000000000000  0.6666666666666667
  0.6666666666666667  0.8333333333333334  0.1666666666666667
  0.8333333333333334  0.8333333333333334  0.0000000000000000
  0.6666666666666667  0.6666666666666667  0.3333333333333334
  0.6666666666666667  0.8333333333333334  0.5000000000000000
  0.8333333333333334  0.6666666666666667  0.5000000000000000
  0.8333333333333334  0.8333333333333334  0.3333333333333334
  0.6666666666666667  0.6666666666666667  0.6666666666666667
  0.1666666666666667  0.1666666666666667  0.0000000000000000
  0.0000000000000000  0.1666666666666667  0.5000000000000000
  0.1666666666666667  0.5000000000000000  0.6666666666666667
  0.0000000000000000  0.8333333333333334  0.5000000000000000
  0.1666666666666667  0.6666666666666667  0.8333333333333334
  0.3333333333333334  0.0000000000000000  0.0000000000000000
  0.5000000000000000  0.1666666666666667  0.0000000000000000
  0.5000000000000000  0.0000000000000000  0.8333333333333334
  0.3333333333333334  0.5000000000000000  0.1666666666666667
  0.3333333333333334  0.3333333333333334  0.3333333333333334
  0.3333333333333334  0.6666666666666667  0.0000000000000000
  0.6666666666666667  0.5000000000000000  0.5000000000000000
  0.0000000000000000  0.3333333333333334  0.0000000000000000
  0.5000000000000000  0.0000000000000000  0.5000000000000000
  0.1666666666666667  0.0000000000000000  0.5000000000000000
  0.1666666666666667  0.6666666666666667  0.5000000000000000
  0.3333333333333334  0.5000000000000000  0.5000000000000000
  0.8333333333333334  0.3333333333333334  0.8333333333333334
  0.8333333333333334  0.8333333333333334  0.6666666666666667
  0.1666666666666667  0.0000000000000000  0.1666666666666667
  0.0000000000000000  0.0000000000000000  0.3333333333333334
  0.1666666666666667  0.1666666666666667  0.3333333333333334
  0.0000000000000000  0.1666666666666667  0.8333333333333334
  0.1666666666666667  0.1666666666666667  0.6666666666666667
  0.1666666666666667  0.8333333333333334  0.6666666666666667
  0.5000000000000000  0.5000000000000000  0.0000000000000000
  0.5000000000000000  0.3333333333333334  0.5000000000000000
  0.3333333333333334  0.5000000000000000  0.8333333333333334
  0.6666666666666667  0.0000000000000000  0.3333333333333334
  0.8333333333333334  0.0000000000000000  0.8333333333333334
  0.6666666666666667  0.3333333333333334  0.3333333333333334
  0.6666666666666667  0.6666666666666667  0.0000000000000000
