L1_2 Fe3Co volume scan, a = 3.580 A     
    1.000000000000000     
     3.5800000000000001    0.0000000000000000    0.0000000000000000
     0.0000000000000000    3.5800000000000001    0.0000000000000000
     0.0000000000000000    0.0000000000000000    3.5800000000000001
   Fe   Co
     3     1
Direct
     0.5000000000000000    0.5000000000000000    0.0000000000000000
     0.5000000000000000    0.0000000000000000    0.5000000000000000
     0.0000000000000000    0.5000000000000000    0.5000000000000000
     0.0000000000000000    0.0000000000000000    0.0000000000000000
 
  0.00000000E+00  0.00000000E+00  0.00000000E+00
  0.00000000E+00  0.00000000E+00  0.00000000E+00
  0.00000000E+00  0.00000000E+00  0.00000000E+00
  0.00000000E+00  0.00000000E+00  0.00000000E+00
