 vasp.6.5.1 10Mar25 (build May 15 2026 23:14:27) complex                         
 executed on              LinuxNV date 2026.06.02  11:24:55
 running    1 mpi-ranks, on    1 nodes
 distrk:  each k-point on    1 cores,    1 groups
 distr:  one band on NCORE=   1 cores,    1 groups
 Offloading initialized ...    1 GPUs detected


--------------------------------------------------------------------------------------------------------


 INCAR:
   SYSTEM = SCF
   ENCUT = 520
   PREC = Accurate
   EDIFF = 1E-6
   NELM = 120
   ALGO = Normal
   ISMEAR = 1
   SIGMA = 0.10
   LASPH = .TRUE.
   LMAXMIX = 4
   ADDGRID = .TRUE.
   LREAL = Auto
   ISYM = 2
   IBRION = -1
   NSW = 0
   LWAVE = .FALSE.
   LCHARG = .TRUE.
   ISPIN = 2
   MAGMOM = 3*2.5 1*1.7

 POTCAR:    PAW_PBE Fe_pv 02Aug2007               
 POTCAR:    PAW_PBE Co 02Aug2007                  
 POTCAR:    PAW_PBE Fe_pv 02Aug2007               
   SHA256 =  5d22e414b1f82158bf2c7ecb8b97b28fd0923e48cadc1c3bf74d524558f5dd32 Fe_pv/POTCAR          
   COPYR  = (c) Copyright 02Aug2007 Georg Kresse                                                    
   COPYR  = This file is part of the software VASP. Any use, copying, and all other rights are regul
   COPYR  = If you do not have a valid VASP license, you may not use, copy or distribute this file. 
   VRHFIN =Fe:  3pd7s1                                                                              
   LEXCH  = PE                                                                                      
   EATOM  =  2457.4239 eV,  180.6156 Ry                                                             
                                                                                                    
   TITEL  = PAW_PBE Fe_pv 02Aug2007                                                                 
   LULTRA =        F    use ultrasoft PP ?                                                          
   IUNSCR =        1    unscreen: 0-lin 1-nonlin 2-no                                               
   RPACOR =    1.750    partial core radius                                                         
   POMASS =   55.847; ZVAL   =   14.000    mass and valenz                                          
   RCORE  =    2.200    outmost cutoff radius                                                       
   RWIGS  =    2.200; RWIGS  =    1.164    wigner-seitz radius (au A)                               
   ENMAX  =  293.238; ENMIN  =  219.928 eV                                                          
   ICORE  =        3    local potential                                                             
   LCOR   =        T    correct aug charges                                                         
   LPAW   =        T    paw PP                                                                      
   EAUG   =  578.342                                                                                
   DEXC   =    0.000                                                                                
   RMAX   =    2.249    core radius for proj-oper                                                   
   RAUG   =    1.300    factor for augmentation sphere                                              
   RDEP   =    2.296    radius for radial grids                                                     
   RDEPT  =    1.766    core radius for aug-charge                                                  
                                                                                                    
   Atomic configuration                                                                             
    8 entries                                                                                       
     n  l   j            E        occ.                                                              
     1  0  0.50     -6993.8440   2.0000                                                             
     2  0  0.50      -814.6047   2.0000                                                             
     2  1  1.50      -693.3689   6.0000                                                             
     3  0  0.50       -89.4732   2.0000                                                             
     3  1  1.50       -55.6373   6.0000                                                             
     3  2  2.50        -3.8151   7.0000                                                             
     4  0  0.50        -4.2551   1.0000                                                             
     4  3  2.50        -1.3606   0.0000                                                             
   Description                                                                                      
     l       E           TYP  RCUT    TYP  RCUT                                                     
     1    -55.6372668     23  2.000                                                                 
     1     -5.4423304     23  2.000                                                                 
     2     -3.8151096     23  2.200                                                                 
     2     -5.1756922     23  2.200                                                                 
     0     -4.2550951     23  2.200                                                                 
     0     27.2116520     23  2.200                                                                 
     3     -1.3605826     23  2.200                                                                 
  local pseudopotential read in
  partial core-charges read in
  partial kinetic energy density read in
  atomic valenz-charges read in
  non local Contribution for L=            1  read in
    real space projection operators read in
  non local Contribution for L=            1  read in
    real space projection operators read in
  non local Contribution for L=            2  read in
    real space projection operators read in
  non local Contribution for L=            2  read in
    real space projection operators read in
  non local Contribution for L=            0  read in
    real space projection operators read in
  non local Contribution for L=            0  read in
    real space projection operators read in
    PAW grid and wavefunctions read in
 
   number of l-projection  operators is LMAX  =            6
   number of lm-projection operators is LMMAX =           18
 
 POTCAR:    PAW_PBE Co 02Aug2007                  
   SHA256 =  0e690c60710354995174544f52f9f2c30879afabeffe3b3fbd4001cb294e56d4 Co/POTCAR             
   COPYR  = (c) Copyright 02Aug2007 Georg Kresse                                                    
   COPYR  = This file is part of the software VASP. Any use, copying, and all other rights are regul
   COPYR  = If you do not have a valid VASP license, you may not use, copy or distribute this file. 
   VRHFIN =Co: d8 s1                                                                                
   LEXCH  = PE                                                                                      
   EATOM  =   813.3670 eV,   59.7808 Ry                                                             
                                                                                                    
   TITEL  = PAW_PBE Co 02Aug2007                                                                    
   LULTRA =        F    use ultrasoft PP ?                                                          
   IUNSCR =        1    unscreen: 0-lin 1-nonlin 2-no                                               
   RPACOR =    2.000    partial core radius                                                         
   POMASS =   58.933; ZVAL   =    9.000    mass and valenz                                          
   RCORE  =    2.300    outmost cutoff radius                                                       
   RWIGS  =    2.460; RWIGS  =    1.302    wigner-seitz radius (au A)                               
   ENMAX  =  267.968; ENMIN  =  200.976 eV                                                          
   RCLOC  =    1.203    cutoff for local pot                                                        
   LCOR   =        T    correct aug charges                                                         
   LPAW   =        T    paw PP                                                                      
   EAUG   =  477.818                                                                                
   DEXC   =    0.000                                                                                
   RMAX   =    2.360    core radius for proj-oper                                                   
   RAUG   =    1.300    factor for augmentation sphere                                              
   RDEP   =    2.393    radius for radial grids                                                     
   RDEPT  =    1.864    core radius for aug-charge                                                  
                                                                                                    
   Atomic configuration                                                                             
    9 entries                                                                                       
     n  l   j            E        occ.                                                              
     1  0  0.50     -7587.6674   2.0000                                                             
     2  0  0.50      -893.6084   2.0000                                                             
     2  1  1.50      -764.5805   6.0000                                                             
     3  0  0.50       -97.5973   2.0000                                                             
     3  1  1.50       -60.9648   6.0000                                                             
     3  2  2.50        -4.2382   8.0000                                                             
     4  0  0.50        -4.3746   1.0000                                                             
     4  1  1.50        -4.0817   0.0000                                                             
     4  3  2.50        -1.3606   0.0000                                                             
   Description                                                                                      
     l       E           TYP  RCUT    TYP  RCUT                                                     
     2     -4.2382362     23  2.300                                                                 
     2     -5.5988188     23  2.300                                                                 
     0     -4.3745797     23  2.300                                                                 
     0      5.7660125     23  2.300                                                                 
     1     -2.7211652     23  2.300                                                                 
     1     16.9860234     23  2.300                                                                 
  local pseudopotential read in
  partial core-charges read in
  partial kinetic energy density read in
  atomic valenz-charges read in
  non local Contribution for L=            2  read in
    real space projection operators read in
  non local Contribution for L=            2  read in
    real space projection operators read in
  non local Contribution for L=            0  read in
    real space projection operators read in
  non local Contribution for L=            0  read in
    real space projection operators read in
  non local Contribution for L=            1  read in
    real space projection operators read in
  non local Contribution for L=            1  read in
    real space projection operators read in
    PAW grid and wavefunctions read in
 
   number of l-projection  operators is LMAX  =            6
   number of lm-projection operators is LMMAX =           18
 
 -----------------------------------------------------------------------------
|                                                                             |
|               ----> ADVICE to this user running VASP <----                  |
|                                                                             |
|     You have a (more or less) 'small supercell' and for smaller cells       |
|     it is recommended to use the reciprocal-space projection scheme!        |
|     The real-space optimization is not efficient for small cells and it     |
|     is also less accurate ...                                               |
|     Therefore, set LREAL=.FALSE. in the INCAR file.                         |
|                                                                             |
 -----------------------------------------------------------------------------

 Optimization of the real space projectors (new method)

 maximal supplied QI-value         = 17.01
 optimisation between [QCUT,QGAM] = [ 11.57, 23.30] = [ 37.45,152.03] Ry 
 Optimized for a Real-space Cutoff    1.45 Angstroem

   l    n(q)    QCUT    max X(q) W(low)/X(q) W(high)/X(q)  e(spline) 
   1     10    11.565     4.267    0.91E-04    0.15E-03    0.13E-06
   1     10    11.565     5.750    0.14E-03    0.22E-03    0.20E-06
   2      9    11.565    53.656    0.13E-03    0.57E-04    0.16E-06
   2      9    11.565    49.521    0.13E-03    0.59E-04    0.16E-06
   0     10    11.565    31.246    0.61E-04    0.74E-05    0.89E-07
   0     10    11.565    12.201    0.44E-04    0.68E-05    0.74E-07
 Optimization of the real space projectors (new method)

 maximal supplied QI-value         = 16.25
 optimisation between [QCUT,QGAM] = [ 11.54, 23.24] = [ 37.28,151.24] Ry 
 Optimized for a Real-space Cutoff    1.45 Angstroem

   l    n(q)    QCUT    max X(q) W(low)/X(q) W(high)/X(q)  e(spline) 
   2      9    11.539    65.824    0.19E-03    0.47E-04    0.16E-06
   2      9    11.539    61.429    0.20E-03    0.48E-04    0.16E-06
   0     10    11.539    56.174    0.76E-04    0.45E-04    0.23E-06
   0     10    11.539    31.263    0.69E-04    0.41E-04    0.21E-06
   1     10    11.539    19.828    0.78E-04    0.14E-03    0.70E-07
   1     10    11.539    15.139    0.65E-04    0.12E-03    0.64E-07
  PAW_PBE Fe_pv 02Aug2007               :
 energy of atom  1       EATOM=-2457.4239
 kinetic energy error for atom=    0.0062 (will be added to EATOM!!)
  PAW_PBE Co 02Aug2007                  :
 energy of atom  2       EATOM= -813.3670
 kinetic energy error for atom=    0.0028 (will be added to EATOM!!)
 
 
 POSCAR: L1_2 Fe3Co volume scan, a = 3.580 A
  positions in direct lattice
  No initial velocities read in


 exchange-correlation table for PE
   RHO(1)=    0.500       N(1)  =     2000
   RHO(2)=  100.500       N(2)  =     4000
 


--------------------------------------------------------------------------------------------------------


 ion  position               nearest neighbor table
   1  0.500  0.500  0.000-   2 2.53   3 2.53   4 2.53   2 2.53   3 2.53   2 2.53   4 2.53   2 2.53
                             3 2.53   4 2.53   3 2.53   4 2.53
   2  0.500  0.000  0.500-   1 2.53   3 2.53   4 2.53   1 2.53   4 2.53   1 2.53   3 2.53   1 2.53
                             3 2.53   4 2.53   4 2.53   3 2.53
   3  0.000  0.500  0.500-   1 2.53   2 2.53   4 2.53   1 2.53   4 2.53   2 2.53   4 2.53   4 2.53
                             1 2.53   2 2.53   1 2.53   2 2.53
   4  0.000  0.000  0.000-   1 2.53   2 2.53   3 2.53   2 2.53   3 2.53   1 2.53   3 2.53   3 2.53
                             1 2.53   2 2.53   2 2.53   1 2.53
 
  LATTYP: Found a simple cubic cell.
 ALAT       =     3.5800000000
  
  Lattice vectors:
  
 A1 = (   3.5800000000,   0.0000000000,   0.0000000000)
 A2 = (   0.0000000000,   3.5800000000,   0.0000000000)
 A3 = (   0.0000000000,   0.0000000000,   3.5800000000)


Analysis of symmetry for initial positions (statically):
=====================================================================
 Subroutine PRICEL returns:
 Original cell was already a primitive cell.
 

 Routine SETGRP: Setting up the symmetry group for a 
 simple cubic supercell.


 Subroutine GETGRP returns: Found 48 space group operations
 (whereof 48 operations were pure point group operations)
 out of a pool of 48 trial point group operations.


The static configuration has the point symmetry O_h .


Analysis of symmetry for dynamics (positions and initial velocities):
=====================================================================
 Subroutine PRICEL returns:
 Original cell was already a primitive cell.
 

 Routine SETGRP: Setting up the symmetry group for a 
 simple cubic supercell.


 Subroutine GETGRP returns: Found 48 space group operations
 (whereof 48 operations were pure point group operations)
 out of a pool of 48 trial point group operations.


The dynamic configuration has the point symmetry O_h .


Analysis of structural, dynamic, and magnetic symmetry:
=====================================================================
 Subroutine PRICEL returns:
 Original cell was already a primitive cell.
 

 Routine SETGRP: Setting up the symmetry group for a 
 simple cubic supercell.


 Subroutine GETGRP returns: Found 48 space group operations
 (whereof 48 operations were pure point group operations)
 out of a pool of 48 trial point group operations.


The overall configuration has the point symmetry O_h .


 Subroutine INISYM returns: Found 48 space group operations
 (whereof 48 operations are pure point group operations),
 and found     1 'primitive' translations


----------------------------------------------------------------------------------------

                                     Primitive cell                                     

  volume of cell :      45.8827

  direct lattice vectors                    reciprocal lattice vectors
     3.580000000  0.000000000  0.000000000     0.279329609  0.000000000  0.000000000
     0.000000000  3.580000000  0.000000000     0.000000000  0.279329609  0.000000000
     0.000000000  0.000000000  3.580000000     0.000000000  0.000000000  0.279329609

  length of vectors
     3.580000000  3.580000000  3.580000000     0.279329609  0.279329609  0.279329609

  position of ions in fractional coordinates (direct lattice)
     0.500000000  0.500000000  0.000000000
     0.500000000  0.000000000  0.500000000
     0.000000000  0.500000000  0.500000000
     0.000000000  0.000000000  0.000000000

  ion indices of the primitive-cell ions
   primitive index   ion index
                 1           1
                 2           2
                 3           3
                 4           4

----------------------------------------------------------------------------------------

 
 
 KPOINTS: Automatic mesh                          

Automatic generation of k-mesh.
 Grid dimensions read from file:
 generate k-points for:   13   13   13

 Generating k-lattice:

  Cartesian coordinates                     Fractional coordinates (reciprocal lattice)
     0.021486893  0.000000000  0.000000000     0.076923077  0.000000000  0.000000000
     0.000000000  0.021486893  0.000000000     0.000000000  0.076923077  0.000000000
     0.000000000  0.000000000  0.021486893     0.000000000  0.000000000  0.076923077

  Length of vectors
     0.021486893  0.021486893  0.021486893

  Shift w.r.t. Gamma in fractional coordinates (k-lattice)
     0.000000000  0.000000000  0.000000000

 
 Subroutine IBZKPT returns following result:
 ===========================================
 
 Found     84 irreducible k-points:
 
 Following reciprocal coordinates:
            Coordinates               Weight
  0.000000  0.000000  0.000000      1.000000
  0.076923  0.000000  0.000000      6.000000
  0.153846  0.000000  0.000000      6.000000
  0.230769  0.000000  0.000000      6.000000
  0.307692  0.000000  0.000000      6.000000
  0.384615  0.000000  0.000000      6.000000
  0.461538  0.000000  0.000000      6.000000
  0.076923  0.076923  0.000000     12.000000
  0.153846  0.076923  0.000000     24.000000
  0.230769  0.076923  0.000000     24.000000
  0.307692  0.076923  0.000000     24.000000
  0.384615  0.076923  0.000000     24.000000
  0.461538  0.076923  0.000000     24.000000
  0.153846  0.153846  0.000000     12.000000
  0.230769  0.153846  0.000000     24.000000
  0.307692  0.153846  0.000000     24.000000
  0.384615  0.153846  0.000000     24.000000
  0.461538  0.153846  0.000000     24.000000
  0.230769  0.230769  0.000000     12.000000
  0.307692  0.230769  0.000000     24.000000
  0.384615  0.230769  0.000000     24.000000
  0.461538  0.230769  0.000000     24.000000
  0.307692  0.307692  0.000000     12.000000
  0.384615  0.307692  0.000000     24.000000
  0.461538  0.307692  0.000000     24.000000
  0.384615  0.384615  0.000000     12.000000
  0.461538  0.384615  0.000000     24.000000
  0.461538  0.461538  0.000000     12.000000
  0.076923  0.076923  0.076923      8.000000
  0.153846  0.076923  0.076923     24.000000
  0.230769  0.076923  0.076923     24.000000
  0.307692  0.076923  0.076923     24.000000
  0.384615  0.076923  0.076923     24.000000
  0.461538  0.076923  0.076923     24.000000
  0.153846  0.153846  0.076923     24.000000
  0.230769  0.153846  0.076923     48.000000
  0.307692  0.153846  0.076923     48.000000
  0.384615  0.153846  0.076923     48.000000
  0.461538  0.153846  0.076923     48.000000
  0.230769  0.230769  0.076923     24.000000
  0.307692  0.230769  0.076923     48.000000
  0.384615  0.230769  0.076923     48.000000
  0.461538  0.230769  0.076923     48.000000
  0.307692  0.307692  0.076923     24.000000
  0.384615  0.307692  0.076923     48.000000
  0.461538  0.307692  0.076923     48.000000
  0.384615  0.384615  0.076923     24.000000
  0.461538  0.384615  0.076923     48.000000
  0.461538  0.461538  0.076923     24.000000
  0.153846  0.153846  0.153846      8.000000
  0.230769  0.153846  0.153846     24.000000
  0.307692  0.153846  0.153846     24.000000
  0.384615  0.153846  0.153846     24.000000
  0.461538  0.153846  0.153846     24.000000
  0.230769  0.230769  0.153846     24.000000
  0.307692  0.230769  0.153846     48.000000
  0.384615  0.230769  0.153846     48.000000
  0.461538  0.230769  0.153846     48.000000
  0.307692  0.307692  0.153846     24.000000
  0.384615  0.307692  0.153846     48.000000
  0.461538  0.307692  0.153846     48.000000
  0.384615  0.384615  0.153846     24.000000
  0.461538  0.384615  0.153846     48.000000
  0.461538  0.461538  0.153846     24.000000
  0.230769  0.230769  0.230769      8.000000
  0.307692  0.230769  0.230769     24.000000
  0.384615  0.230769  0.230769     24.000000
  0.461538  0.230769  0.230769     24.000000
  0.307692  0.307692  0.230769     24.000000
  0.384615  0.307692  0.230769     48.000000
  0.461538  0.307692  0.230769     48.000000
  0.384615  0.384615  0.230769     24.000000
  0.461538  0.384615  0.230769     48.000000
  0.461538  0.461538  0.230769     24.000000
  0.307692  0.307692  0.307692      8.000000
  0.384615  0.307692  0.307692     24.000000
  0.461538  0.307692  0.307692     24.000000
  0.384615  0.384615  0.307692     24.000000
  0.461538  0.384615  0.307692     48.000000
  0.461538  0.461538  0.307692     24.000000
  0.384615  0.384615  0.384615      8.000000
  0.461538  0.384615  0.384615     24.000000
  0.461538  0.461538  0.384615     24.000000
  0.461538  0.461538  0.461538      8.000000
 
 Following cartesian coordinates:
            Coordinates               Weight
  0.000000  0.000000  0.000000      1.000000
  0.021487  0.000000  0.000000      6.000000
  0.042974  0.000000  0.000000      6.000000
  0.064461  0.000000  0.000000      6.000000
  0.085948  0.000000  0.000000      6.000000
  0.107434  0.000000  0.000000      6.000000
  0.128921  0.000000  0.000000      6.000000
  0.021487  0.021487  0.000000     12.000000
  0.042974  0.021487  0.000000     24.000000
  0.064461  0.021487  0.000000     24.000000
  0.085948  0.021487  0.000000     24.000000
  0.107434  0.021487  0.000000     24.000000
  0.128921  0.021487  0.000000     24.000000
  0.042974  0.042974  0.000000     12.000000
  0.064461  0.042974  0.000000     24.000000
  0.085948  0.042974  0.000000     24.000000
  0.107434  0.042974  0.000000     24.000000
  0.128921  0.042974  0.000000     24.000000
  0.064461  0.064461  0.000000     12.000000
  0.085948  0.064461  0.000000     24.000000
  0.107434  0.064461  0.000000     24.000000
  0.128921  0.064461  0.000000     24.000000
  0.085948  0.085948  0.000000     12.000000
  0.107434  0.085948  0.000000     24.000000
  0.128921  0.085948  0.000000     24.000000
  0.107434  0.107434  0.000000     12.000000
  0.128921  0.107434  0.000000     24.000000
  0.128921  0.128921  0.000000     12.000000
  0.021487  0.021487  0.021487      8.000000
  0.042974  0.021487  0.021487     24.000000
  0.064461  0.021487  0.021487     24.000000
  0.085948  0.021487  0.021487     24.000000
  0.107434  0.021487  0.021487     24.000000
  0.128921  0.021487  0.021487     24.000000
  0.042974  0.042974  0.021487     24.000000
  0.064461  0.042974  0.021487     48.000000
  0.085948  0.042974  0.021487     48.000000
  0.107434  0.042974  0.021487     48.000000
  0.128921  0.042974  0.021487     48.000000
  0.064461  0.064461  0.021487     24.000000
  0.085948  0.064461  0.021487     48.000000
  0.107434  0.064461  0.021487     48.000000
  0.128921  0.064461  0.021487     48.000000
  0.085948  0.085948  0.021487     24.000000
  0.107434  0.085948  0.021487     48.000000
  0.128921  0.085948  0.021487     48.000000
  0.107434  0.107434  0.021487     24.000000
  0.128921  0.107434  0.021487     48.000000
  0.128921  0.128921  0.021487     24.000000
  0.042974  0.042974  0.042974      8.000000
  0.064461  0.042974  0.042974     24.000000
  0.085948  0.042974  0.042974     24.000000
  0.107434  0.042974  0.042974     24.000000
  0.128921  0.042974  0.042974     24.000000
  0.064461  0.064461  0.042974     24.000000
  0.085948  0.064461  0.042974     48.000000
  0.107434  0.064461  0.042974     48.000000
  0.128921  0.064461  0.042974     48.000000
  0.085948  0.085948  0.042974     24.000000
  0.107434  0.085948  0.042974     48.000000
  0.128921  0.085948  0.042974     48.000000
  0.107434  0.107434  0.042974     24.000000
  0.128921  0.107434  0.042974     48.000000
  0.128921  0.128921  0.042974     24.000000
  0.064461  0.064461  0.064461      8.000000
  0.085948  0.064461  0.064461     24.000000
  0.107434  0.064461  0.064461     24.000000
  0.128921  0.064461  0.064461     24.000000
  0.085948  0.085948  0.064461     24.000000
  0.107434  0.085948  0.064461     48.000000
  0.128921  0.085948  0.064461     48.000000
  0.107434  0.107434  0.064461     24.000000
  0.128921  0.107434  0.064461     48.000000
  0.128921  0.128921  0.064461     24.000000
  0.085948  0.085948  0.085948      8.000000
  0.107434  0.085948  0.085948     24.000000
  0.128921  0.085948  0.085948     24.000000
  0.107434  0.107434  0.085948     24.000000
  0.128921  0.107434  0.085948     48.000000
  0.128921  0.128921  0.085948     24.000000
  0.107434  0.107434  0.107434      8.000000
  0.128921  0.107434  0.107434     24.000000
  0.128921  0.128921  0.107434     24.000000
  0.128921  0.128921  0.128921      8.000000
 


--------------------------------------------------------------------------------------------------------




 Dimension of arrays:
   k-points           NKPTS =     84   k-points in BZ     NKDIM =     84   number of bands    NBANDS=     35
   number of dos      NEDOS =    301   number of ions     NIONS =      4
   non local maximal  LDIM  =      6   non local SUM 2l+1 LMDIM =     18
   total plane-waves  NPLWV =  21952
   max r-space proj   IRMAX =   6106   max aug-charges    IRDMAX= 151134
   dimension x,y,z NGX =    28 NGY =   28 NGZ =   28
   dimension x,y,z NGXF=    56 NGYF=   56 NGZF=   56
   support grid    NGXF=   112 NGYF=  112 NGZF=  112
   ions per type =               3   1
   NGX,Y,Z   is equivalent  to a cutoff of  13.00, 13.00, 13.00 a.u.
   NGXF,Y,Z  is equivalent  to a cutoff of  26.00, 26.00, 26.00 a.u.

 SYSTEM =  SCF                                     
 POSCAR =  L1_2 Fe3Co volume scan, a = 3.580 A     

 Startparameter for this run:
   NWRITE =      2    write-flag & timer
   PREC   = accura    normal or accurate (medium, high low for compatibility)
   ISTART =      0    job   : 0-new  1-cont  2-samecut
   ICHARG =      2    charge: 1-file 2-atom 10-const
   ISPIN  =      2    spin polarized calculation?
   LNONCOLLINEAR =      F non collinear calculations
   LSORBIT =      F    spin-orbit coupling
   INIWAV =      1    electr: 0-lowe 1-rand  2-diag
   LASPH  =      T    aspherical Exc in radial PAW
 Electronic Relaxation 1
   ENCUT  =  520.0 eV  38.22 Ry    6.18 a.u.   6.66  6.66  6.66*2*pi/ulx,y,z
   ENINI  =  520.0     initial cutoff
   ENAUG  =  578.3 eV  augmentation charge cutoff
   NELM   =    120;   NELMIN=  2; NELMDL=  0     # of ELM steps 
   EDIFF  = 0.1E-05   stopping-criterion for ELM
   LREAL  =      T    real-space projection
   NLSPLINE    = F    spline interpolate recip. space projectors
   LCOMPAT=      F    compatible to vasp.4.4
   GGA_COMPAT  = T    GGA compatible to vasp.4.4-vasp.4.6
   LMAXPAW     = -100 max onsite density
   LMAXMIX     =    4 max onsite mixed and CHGCAR
   VOSKOWN=      0    Vosko Wilk Nusair interpolation
   ROPT   =   -0.00025  -0.00025
 Ionic relaxation
   EDIFFG = 0.1E-04   stopping-criterion for IOM
   NSW    =      0    number of steps for IOM
   NBLOCK =      1;   KBLOCK =      1    inner block; outer block 
   IBRION =     -1    ionic relax: 0-MD 1-quasi-New 2-CG
   NFREE  =      0    steps in history (QN), initial steepest desc. (CG)
   ISIF   =      2    stress and relaxation
   IWAVPR =     10    prediction:  0-non 1-charg 2-wave 3-comb
   ISYM   =      2    0-nonsym 1-usesym 2-fastsym
   LCORR  =      T    Harris-Foulkes like correction to forces

   POTIM  = 0.5000    time-step for ionic-motion
   TEIN   =    0.0    initial temperature
   TEBEG  =    0.0;   TEEND  =   0.0 temperature during run
   SMASS  =  -3.00    Nose mass-parameter (am)
   estimated Nose-frequenzy (Omega)   =  0.10E-29 period in steps = 0.13E+47 mass=  -0.293E-27a.u.
   SCALEE = 1.0000    scale energy and forces
   NPACO  =    256;   APACO  = 10.0  distance and # of slots for P.C.
   PSTRESS=    0.0 pullay stress

  Mass of Ions in am
   POMASS =  55.85 58.93
  Ionic Valenz
   ZVAL   =  14.00  9.00
  Atomic Wigner-Seitz radii
   RWIGS  =  -1.00 -1.00
  virtual crystal weights 
   VCA    =   1.00  1.00
   NELECT =      51.0000    total number of electrons
   NUPDOWN=      -1.0000    fix difference up-down

 DOS related values:
   EMIN   =  10.00;   EMAX   =-10.00  energy-range for DOS
   EFERMI =   0.00;   METHOD = LEGACY      
   ISMEAR =     1;   SIGMA  =   0.10  broadening in eV -4-tet -1-fermi 0-gaus
   EFERMI_NEDOS =   21; number of points for ismear=-14 and -15

 Electronic relaxation 2 (details)
   IALGO  =     38    algorithm
   LDIAG  =      T    sub-space diagonalisation (order eigenvalues)
   LSUBROT=      F    optimize rotation matrix (better conditioning)
   LROBUST=      F    robust break criterion during scf (extrapolated energy error)
   ISEARCH=      0    line search for conjugate gradient (0, 1=use gradient)
   TURBO    =      0    0=normal 1=particle mesh
   IRESTART =      0    0=no restart 2=restart with 2 vectors
   NREBOOT  =      0    no. of reboots
   NMIN     =      0    reboot dimension
   EREF     =   0.00    reference energy to select bands
   IMIX   =      4    mixing-type and parameters
     AMIX     =   0.40;   BMIX     =  1.00
     AMIX_MAG =   1.60;   BMIX_MAG =  1.00
     AMIN     =   0.10
     WC   =   100.;   INIMIX=   1;  MIXPRE=   1;  MAXMIX= -45

 Intra band minimization:
   WEIMIN = 0.0000     energy-eigenvalue tresh-hold
   EBREAK =  0.71E-08  absolut break condition
   DEPER  =   0.30     relativ break condition  

   TIME   =   0.40     timestep for ELM

  volume/ion in A,a.u.               =      11.47        77.41
  Fermi-wavevector in a.u.,A,eV,Ry     =   1.695828  3.204651 39.128089  2.875833
  Thomas-Fermi vector in A             =   2.776801
 
 Write flags
   LWAVE        =      F    write WAVECAR
   LDOWNSAMPLE  =      F    k-point downsampling of WAVECAR
   LCHARG       =      T    write CHGCAR
   LVTOT        =      F    write LOCPOT, total local potential
   LVHAR        =      F    write LOCPOT, Hartree potential only
   WRT_POTENTIAL= false  ! write potential to hdf5 file
   LELF         =      F    write electronic localiz. function (ELF)
   LORBIT       =      0    0 simple, 1 ext, 2 COOP (PROOUT), +10 PAW based schemes


 Python interface
   PLUGINS active      =      F    recompile with -DPLUGINS to activate
 
 Dipole corrections
   LMONO      =      F    monopole corrections only (constant potential shift)
   LDIPOL     =      F    correct potential (dipole corrections)
   IDIPOL     =      0    1-x, 2-y, 3-z, 4-all directions 
   EPSILON    =  1.0000000 bulk dielectric constant
   LVACPOTAV  =      F  vacuum potentials using an averaging scheme for the charge density
   VACPOTFLAT =  0.1000000 required flatness to determine vacuum potential
 
Coulomb truncation method
  LTRUNCATE          =      F  Coulomb kernel truncation to be used

 
 Exchange correlation treatment:
   GGA     = PE    functional components
   XC_C    = 1    coefficients multiplying the functional components
   LIBXC   =     F    Libxc                    
   VOSKOWN =     0    Vosko Wilk Nusair interpolation
   LHFCALC =     F    Hartree Fock is set to
   LHFONE  =     F    Hartree Fock one center treatment
   AEXX    =    0.0000 exact exchange contribution

 Parameters of functionals:
   PE:
     No parameter
 
 Van der Waals corrections
   IVDW    =     0    specifies the selected vdW correction

 Linear response parameters
   LEPSILON=     F    determine dielectric tensor
   LRPA    =     F    only Hartree local field effects (RPA)
   LNABLA  =     F    use nabla operator in PAW spheres
   LVEL    =     F    velocity operator in full k-point grid
   CSHIFT  =0.1000    complex shift for real part using Kramers Kronig
   OMEGAMAX=  -1.0    maximum frequency
   DEG_THRESHOLD= 0.2000000E-02 threshold for treating states as degnerate
   RTIME   =   -0.100 relaxation time in fs
  (WPLASMAI=    0.000 imaginary part of plasma frequency in eV, 0.658/RTIME)
   DFIELD  = 0.0000000 0.0000000 0.0000000 field for delta impulse in time
 
  Optional k-point grid parameters
   LKPOINTS_OPT  =     F    use optional k-point grid
   KPOINTS_OPT_MODE=     1    mode for optional k-point grid
 
 Orbital magnetization related:
   ORBITALMAG=     F  switch on orbital magnetization
   LCHIMAG   =     F  perturbation theory with respect to B field
   DQ        =  0.001000  dq finite difference perturbation B field
   LLRAUG    =     F  two centre corrections for induced B field
   LBONE     =     F  B-component reconstruction in AE one-centre
   LVGVCALC  =     T  calculate vGv susceptibility
   LVGVAPPL  =     F  apply vGv susceptibility instead of pGv for G=0

 Random number generation:
   RANDOM_GENERATOR = DEFAULT
   PCG_SEED         = not used


--------------------------------------------------------------------------------------------------------


 Static calculation
 charge density and potential will be updated during run
 spin polarized calculation
 Variant of blocked Davidson
 Davidson routine will perform the subspace rotation
 perform sub-space diagonalisation
    after iterative eigenvector-optimisation
 modified Broyden-mixing scheme, WC =      100.0
 initial mixing is a Kerker type mixing with AMIX =  0.4000 and BMIX =      1.0000
 Hartree-type preconditioning will be used
 using additional bands             9
 real space projection scheme for non local part
 use partial core corrections
 calculate Harris-corrections to forces 
   (improved forces if not selfconsistent)
 use gradient corrections 
 use of overlap-Matrix (Vanderbilt PP)
 Methfessel and Paxton  Order N= 1 SIGMA  =   0.10


--------------------------------------------------------------------------------------------------------


  energy-cutoff  :      520.00
  volume of cell :       45.88
      direct lattice vectors                 reciprocal lattice vectors
     3.580000000  0.000000000  0.000000000     0.279329609  0.000000000  0.000000000
     0.000000000  3.580000000  0.000000000     0.000000000  0.279329609  0.000000000
     0.000000000  0.000000000  3.580000000     0.000000000  0.000000000  0.279329609

  length of vectors
     3.580000000  3.580000000  3.580000000     0.279329609  0.279329609  0.279329609


 
 k-points in units of 2pi/SCALE and weight: Automatic mesh                          
   0.00000000  0.00000000  0.00000000       0.000
   0.02148689  0.00000000  0.00000000       0.003
   0.04297379  0.00000000  0.00000000       0.003
   0.06446068  0.00000000  0.00000000       0.003
   0.08594757  0.00000000  0.00000000       0.003
   0.10743446  0.00000000  0.00000000       0.003
   0.12892136  0.00000000  0.00000000       0.003
   0.02148689  0.02148689  0.00000000       0.005
   0.04297379  0.02148689  0.00000000       0.011
   0.06446068  0.02148689  0.00000000       0.011
   0.08594757  0.02148689  0.00000000       0.011
   0.10743446  0.02148689  0.00000000       0.011
   0.12892136  0.02148689  0.00000000       0.011
   0.04297379  0.04297379  0.00000000       0.005
   0.06446068  0.04297379  0.00000000       0.011
   0.08594757  0.04297379  0.00000000       0.011
   0.10743446  0.04297379  0.00000000       0.011
   0.12892136  0.04297379  0.00000000       0.011
   0.06446068  0.06446068  0.00000000       0.005
   0.08594757  0.06446068  0.00000000       0.011
   0.10743446  0.06446068  0.00000000       0.011
   0.12892136  0.06446068  0.00000000       0.011
   0.08594757  0.08594757  0.00000000       0.005
   0.10743446  0.08594757  0.00000000       0.011
   0.12892136  0.08594757  0.00000000       0.011
   0.10743446  0.10743446  0.00000000       0.005
   0.12892136  0.10743446  0.00000000       0.011
   0.12892136  0.12892136  0.00000000       0.005
   0.02148689  0.02148689  0.02148689       0.004
   0.04297379  0.02148689  0.02148689       0.011
   0.06446068  0.02148689  0.02148689       0.011
   0.08594757  0.02148689  0.02148689       0.011
   0.10743446  0.02148689  0.02148689       0.011
   0.12892136  0.02148689  0.02148689       0.011
   0.04297379  0.04297379  0.02148689       0.011
   0.06446068  0.04297379  0.02148689       0.022
   0.08594757  0.04297379  0.02148689       0.022
   0.10743446  0.04297379  0.02148689       0.022
   0.12892136  0.04297379  0.02148689       0.022
   0.06446068  0.06446068  0.02148689       0.011
   0.08594757  0.06446068  0.02148689       0.022
   0.10743446  0.06446068  0.02148689       0.022
   0.12892136  0.06446068  0.02148689       0.022
   0.08594757  0.08594757  0.02148689       0.011
   0.10743446  0.08594757  0.02148689       0.022
   0.12892136  0.08594757  0.02148689       0.022
   0.10743446  0.10743446  0.02148689       0.011
   0.12892136  0.10743446  0.02148689       0.022
   0.12892136  0.12892136  0.02148689       0.011
   0.04297379  0.04297379  0.04297379       0.004
   0.06446068  0.04297379  0.04297379       0.011
   0.08594757  0.04297379  0.04297379       0.011
   0.10743446  0.04297379  0.04297379       0.011
   0.12892136  0.04297379  0.04297379       0.011
   0.06446068  0.06446068  0.04297379       0.011
   0.08594757  0.06446068  0.04297379       0.022
   0.10743446  0.06446068  0.04297379       0.022
   0.12892136  0.06446068  0.04297379       0.022
   0.08594757  0.08594757  0.04297379       0.011
   0.10743446  0.08594757  0.04297379       0.022
   0.12892136  0.08594757  0.04297379       0.022
   0.10743446  0.10743446  0.04297379       0.011
   0.12892136  0.10743446  0.04297379       0.022
   0.12892136  0.12892136  0.04297379       0.011
   0.06446068  0.06446068  0.06446068       0.004
   0.08594757  0.06446068  0.06446068       0.011
   0.10743446  0.06446068  0.06446068       0.011
   0.12892136  0.06446068  0.06446068       0.011
   0.08594757  0.08594757  0.06446068       0.011
   0.10743446  0.08594757  0.06446068       0.022
   0.12892136  0.08594757  0.06446068       0.022
   0.10743446  0.10743446  0.06446068       0.011
   0.12892136  0.10743446  0.06446068       0.022
   0.12892136  0.12892136  0.06446068       0.011
   0.08594757  0.08594757  0.08594757       0.004
   0.10743446  0.08594757  0.08594757       0.011
   0.12892136  0.08594757  0.08594757       0.011
   0.10743446  0.10743446  0.08594757       0.011
   0.12892136  0.10743446  0.08594757       0.022
   0.12892136  0.12892136  0.08594757       0.011
   0.10743446  0.10743446  0.10743446       0.004
   0.12892136  0.10743446  0.10743446       0.011
   0.12892136  0.12892136  0.10743446       0.011
   0.12892136  0.12892136  0.12892136       0.004
 
 k-points in reciprocal lattice and weights: Automatic mesh                          
   0.00000000  0.00000000  0.00000000       0.000
   0.07692308  0.00000000  0.00000000       0.003
   0.15384615  0.00000000  0.00000000       0.003
   0.23076923  0.00000000  0.00000000       0.003
   0.30769231  0.00000000  0.00000000       0.003
   0.38461538  0.00000000  0.00000000       0.003
   0.46153846  0.00000000  0.00000000       0.003
   0.07692308  0.07692308  0.00000000       0.005
   0.15384615  0.07692308  0.00000000       0.011
   0.23076923  0.07692308  0.00000000       0.011
   0.30769231  0.07692308  0.00000000       0.011
   0.38461538  0.07692308  0.00000000       0.011
   0.46153846  0.07692308  0.00000000       0.011
   0.15384615  0.15384615  0.00000000       0.005
   0.23076923  0.15384615  0.00000000       0.011
   0.30769231  0.15384615  0.00000000       0.011
   0.38461538  0.15384615  0.00000000       0.011
   0.46153846  0.15384615  0.00000000       0.011
   0.23076923  0.23076923  0.00000000       0.005
   0.30769231  0.23076923  0.00000000       0.011
   0.38461538  0.23076923  0.00000000       0.011
   0.46153846  0.23076923  0.00000000       0.011
   0.30769231  0.30769231  0.00000000       0.005
   0.38461538  0.30769231  0.00000000       0.011
   0.46153846  0.30769231  0.00000000       0.011
   0.38461538  0.38461538  0.00000000       0.005
   0.46153846  0.38461538  0.00000000       0.011
   0.46153846  0.46153846  0.00000000       0.005
   0.07692308  0.07692308  0.07692308       0.004
   0.15384615  0.07692308  0.07692308       0.011
   0.23076923  0.07692308  0.07692308       0.011
   0.30769231  0.07692308  0.07692308       0.011
   0.38461538  0.07692308  0.07692308       0.011
   0.46153846  0.07692308  0.07692308       0.011
   0.15384615  0.15384615  0.07692308       0.011
   0.23076923  0.15384615  0.07692308       0.022
   0.30769231  0.15384615  0.07692308       0.022
   0.38461538  0.15384615  0.07692308       0.022
   0.46153846  0.15384615  0.07692308       0.022
   0.23076923  0.23076923  0.07692308       0.011
   0.30769231  0.23076923  0.07692308       0.022
   0.38461538  0.23076923  0.07692308       0.022
   0.46153846  0.23076923  0.07692308       0.022
   0.30769231  0.30769231  0.07692308       0.011
   0.38461538  0.30769231  0.07692308       0.022
   0.46153846  0.30769231  0.07692308       0.022
   0.38461538  0.38461538  0.07692308       0.011
   0.46153846  0.38461538  0.07692308       0.022
   0.46153846  0.46153846  0.07692308       0.011
   0.15384615  0.15384615  0.15384615       0.004
   0.23076923  0.15384615  0.15384615       0.011
   0.30769231  0.15384615  0.15384615       0.011
   0.38461538  0.15384615  0.15384615       0.011
   0.46153846  0.15384615  0.15384615       0.011
   0.23076923  0.23076923  0.15384615       0.011
   0.30769231  0.23076923  0.15384615       0.022
   0.38461538  0.23076923  0.15384615       0.022
   0.46153846  0.23076923  0.15384615       0.022
   0.30769231  0.30769231  0.15384615       0.011
   0.38461538  0.30769231  0.15384615       0.022
   0.46153846  0.30769231  0.15384615       0.022
   0.38461538  0.38461538  0.15384615       0.011
   0.46153846  0.38461538  0.15384615       0.022
   0.46153846  0.46153846  0.15384615       0.011
   0.23076923  0.23076923  0.23076923       0.004
   0.30769231  0.23076923  0.23076923       0.011
   0.38461538  0.23076923  0.23076923       0.011
   0.46153846  0.23076923  0.23076923       0.011
   0.30769231  0.30769231  0.23076923       0.011
   0.38461538  0.30769231  0.23076923       0.022
   0.46153846  0.30769231  0.23076923       0.022
   0.38461538  0.38461538  0.23076923       0.011
   0.46153846  0.38461538  0.23076923       0.022
   0.46153846  0.46153846  0.23076923       0.011
   0.30769231  0.30769231  0.30769231       0.004
   0.38461538  0.30769231  0.30769231       0.011
   0.46153846  0.30769231  0.30769231       0.011
   0.38461538  0.38461538  0.30769231       0.011
   0.46153846  0.38461538  0.30769231       0.022
   0.46153846  0.46153846  0.30769231       0.011
   0.38461538  0.38461538  0.38461538       0.004
   0.46153846  0.38461538  0.38461538       0.011
   0.46153846  0.46153846  0.38461538       0.011
   0.46153846  0.46153846  0.46153846       0.004
 
 position of ions in fractional coordinates (direct lattice) 
   0.50000000  0.50000000  0.00000000
   0.50000000  0.00000000  0.50000000
   0.00000000  0.50000000  0.50000000
   0.00000000  0.00000000  0.00000000
 
 position of ions in cartesian coordinates  (Angst):
   1.79000000  1.79000000  0.00000000
   1.79000000  0.00000000  1.79000000
   0.00000000  1.79000000  1.79000000
   0.00000000  0.00000000  0.00000000
 


--------------------------------------------------------------------------------------------------------


 k-point     1 :   0.0000 0.0000 0.0000  plane waves:    1237
 k-point     2 :   0.0769 0.0000 0.0000  plane waves:    1237
 k-point     3 :   0.1538 0.0000 0.0000  plane waves:    1253
 k-point     4 :   0.2308 0.0000 0.0000  plane waves:    1245
 k-point     5 :   0.3077 0.0000 0.0000  plane waves:    1237
 k-point     6 :   0.3846 0.0000 0.0000  plane waves:    1230
 k-point     7 :   0.4615 0.0000 0.0000  plane waves:    1230
 k-point     8 :   0.0769 0.0769 0.0000  plane waves:    1245
 k-point     9 :   0.1538 0.0769 0.0000  plane waves:    1252
 k-point    10 :   0.2308 0.0769 0.0000  plane waves:    1252
 k-point    11 :   0.3077 0.0769 0.0000  plane waves:    1233
 k-point    12 :   0.3846 0.0769 0.0000  plane waves:    1227
 k-point    13 :   0.4615 0.0769 0.0000  plane waves:    1233
 k-point    14 :   0.1538 0.1538 0.0000  plane waves:    1253
 k-point    15 :   0.2308 0.1538 0.0000  plane waves:    1248
 k-point    16 :   0.3077 0.1538 0.0000  plane waves:    1239
 k-point    17 :   0.3846 0.1538 0.0000  plane waves:    1230
 k-point    18 :   0.4615 0.1538 0.0000  plane waves:    1225
 k-point    19 :   0.2308 0.2308 0.0000  plane waves:    1241
 k-point    20 :   0.3077 0.2308 0.0000  plane waves:    1238
 k-point    21 :   0.3846 0.2308 0.0000  plane waves:    1232
 k-point    22 :   0.4615 0.2308 0.0000  plane waves:    1237
 k-point    23 :   0.3077 0.3077 0.0000  plane waves:    1242
 k-point    24 :   0.3846 0.3077 0.0000  plane waves:    1236
 k-point    25 :   0.4615 0.3077 0.0000  plane waves:    1239
 k-point    26 :   0.3846 0.3846 0.0000  plane waves:    1232
 k-point    27 :   0.4615 0.3846 0.0000  plane waves:    1233
 k-point    28 :   0.4615 0.4615 0.0000  plane waves:    1238
 k-point    29 :   0.0769 0.0769 0.0769  plane waves:    1240
 k-point    30 :   0.1538 0.0769 0.0769  plane waves:    1252
 k-point    31 :   0.2308 0.0769 0.0769  plane waves:    1253
 k-point    32 :   0.3077 0.0769 0.0769  plane waves:    1237
 k-point    33 :   0.3846 0.0769 0.0769  plane waves:    1224
 k-point    34 :   0.4615 0.0769 0.0769  plane waves:    1230
 k-point    35 :   0.1538 0.1538 0.0769  plane waves:    1248
 k-point    36 :   0.2308 0.1538 0.0769  plane waves:    1241
 k-point    37 :   0.3077 0.1538 0.0769  plane waves:    1236
 k-point    38 :   0.3846 0.1538 0.0769  plane waves:    1230
 k-point    39 :   0.4615 0.1538 0.0769  plane waves:    1230
 k-point    40 :   0.2308 0.2308 0.0769  plane waves:    1238
 k-point    41 :   0.3077 0.2308 0.0769  plane waves:    1235
 k-point    42 :   0.3846 0.2308 0.0769  plane waves:    1230
 k-point    43 :   0.4615 0.2308 0.0769  plane waves:    1239
 k-point    44 :   0.3077 0.3077 0.0769  plane waves:    1238
 k-point    45 :   0.3846 0.3077 0.0769  plane waves:    1234
 k-point    46 :   0.4615 0.3077 0.0769  plane waves:    1229
 k-point    47 :   0.3846 0.3846 0.0769  plane waves:    1238
 k-point    48 :   0.4615 0.3846 0.0769  plane waves:    1238
 k-point    49 :   0.4615 0.4615 0.0769  plane waves:    1238
 k-point    50 :   0.1538 0.1538 0.1538  plane waves:    1243
 k-point    51 :   0.2308 0.1538 0.1538  plane waves:    1240
 k-point    52 :   0.3077 0.1538 0.1538  plane waves:    1241
 k-point    53 :   0.3846 0.1538 0.1538  plane waves:    1236
 k-point    54 :   0.4615 0.1538 0.1538  plane waves:    1230
 k-point    55 :   0.2308 0.2308 0.1538  plane waves:    1230
 k-point    56 :   0.3077 0.2308 0.1538  plane waves:    1232
 k-point    57 :   0.3846 0.2308 0.1538  plane waves:    1234
 k-point    58 :   0.4615 0.2308 0.1538  plane waves:    1235
 k-point    59 :   0.3077 0.3077 0.1538  plane waves:    1235
 k-point    60 :   0.3846 0.3077 0.1538  plane waves:    1233
 k-point    61 :   0.4615 0.3077 0.1538  plane waves:    1232
 k-point    62 :   0.3846 0.3846 0.1538  plane waves:    1234
 k-point    63 :   0.4615 0.3846 0.1538  plane waves:    1232
 k-point    64 :   0.4615 0.4615 0.1538  plane waves:    1235
 k-point    65 :   0.2308 0.2308 0.2308  plane waves:    1232
 k-point    66 :   0.3077 0.2308 0.2308  plane waves:    1240
 k-point    67 :   0.3846 0.2308 0.2308  plane waves:    1236
 k-point    68 :   0.4615 0.2308 0.2308  plane waves:    1234
 k-point    69 :   0.3077 0.3077 0.2308  plane waves:    1235
 k-point    70 :   0.3846 0.3077 0.2308  plane waves:    1232
 k-point    71 :   0.4615 0.3077 0.2308  plane waves:    1225
 k-point    72 :   0.3846 0.3846 0.2308  plane waves:    1232
 k-point    73 :   0.4615 0.3846 0.2308  plane waves:    1230
 k-point    74 :   0.4615 0.4615 0.2308  plane waves:    1231
 k-point    75 :   0.3077 0.3077 0.3077  plane waves:    1226
 k-point    76 :   0.3846 0.3077 0.3077  plane waves:    1232
 k-point    77 :   0.4615 0.3077 0.3077  plane waves:    1227
 k-point    78 :   0.3846 0.3846 0.3077  plane waves:    1230
 k-point    79 :   0.4615 0.3846 0.3077  plane waves:    1234
 k-point    80 :   0.4615 0.4615 0.3077  plane waves:    1233
 k-point    81 :   0.3846 0.3846 0.3846  plane waves:    1241
 k-point    82 :   0.4615 0.3846 0.3846  plane waves:    1237
 k-point    83 :   0.4615 0.4615 0.3846  plane waves:    1250
 k-point    84 :   0.4615 0.4615 0.4615  plane waves:    1235

 maximum and minimum number of plane-waves per node :      1253     1224

 maximum number of plane-waves:      1253
 maximum index in each direction: 
   IXMAX=    6   IYMAX=    6   IZMAX=    6
   IXMIN=   -7   IYMIN=   -7   IZMIN=   -7


 serial   3D FFT for wavefunctions
 parallel 3D FFT for charge:
    minimum data exchange during FFTs selected (reduces bandwidth)


 total amount of memory used by VASP MPI-rank0   201319. kBytes
=======================================================================

   base                                    :      30000. kBytes
   nonlr-proj                              :       4144. kBytes
   fftplans                                :      26164. kBytes
   grid                                    :      16231. kBytes
   one-center                              :        124. kBytes
   wavefun                                 :     124656. kBytes
 
     INWAV:  cpu time      0.0000: real time      0.0000
 Broyden mixing: mesh for mixing (old mesh)
   NGX = 13   NGY = 13   NGZ = 13
  (NGX  = 56   NGY  = 56   NGZ  = 56)
  gives a total of   2197 points

 initial charge density was supplied:
 charge density of overlapping atoms calculated
 number of electron      51.0000000 magnetization       9.2000000
 keeping initial charge density in first step


--------------------------------------------------------------------------------------------------------


 Maximum index for non-local projection operator          5887
 Maximum index for augmentation-charges        146533 (set IRDMAX)


--------------------------------------------------------------------------------------------------------


 First call to EWALD:  gamma=   0.495
 Maximum number of real-space cells   3x   3x   3
 Maximum number of reciprocal cells   3x   3x   3

    FEWALD:  cpu time      0.0009: real time      0.0009


--------------------------------------- Ionic step        1  -------------------------------------------




--------------------------------------- Iteration      1(   1)  ---------------------------------------


    POTLOK:  cpu time      0.0172: real time      0.0172
    SETDIJ:  cpu time      0.4783: real time      0.4781
     EDDAV:  cpu time      6.2235: real time      6.2220
       DOS:  cpu time      0.0023: real time      0.0023
    --------------------------------------------
      LOOP:  cpu time      6.7213: real time      6.7197

 eigenvalue-minimisations  : 12190
 total energy-change (2. order) : 0.5921451E+03  (-0.2768939E+04)
 number of electron      51.0000000 magnetization       9.2000000
 augmentation part       51.0000000 magnetization       9.2000000

 Free energy of the ion-electron system (eV)
  ---------------------------------------------------
  alpha Z        PSCENC =       350.86543723
  Ewald energy   TEWEN  =     -6080.86046925
  -Hartree energ DENC   =     -1975.33677660
  -exchange      EXHF   =         0.00000000
  -V(xc)+E(xc)   XCENC  =       232.72223667
  PAW double counting   =      6722.83718483    -7045.45957438
  entropy T*S    EENTRO =        -0.00116355
  eigenvalues    EBANDS =       201.76081569
  atomic energy  EATOM  =      8185.61741903
  Solvation  Ediel_sol  =         0.00000000
  ---------------------------------------------------
  free energy    TOTEN  =       592.14510966 eV

  energy without entropy =      592.14627321  energy(sigma->0) =      592.14549751


--------------------------------------------------------------------------------------------------------




--------------------------------------- Iteration      1(   2)  ---------------------------------------


     EDDAV:  cpu time      5.9486: real time      5.9472
       DOS:  cpu time      0.0029: real time      0.0029
    --------------------------------------------
      LOOP:  cpu time      5.9516: real time      5.9501

 eigenvalue-minimisations  : 11772
 total energy-change (2. order) :-0.5793655E+03  (-0.5566275E+03)
 number of electron      51.0000000 magnetization       9.2000000
 augmentation part       51.0000000 magnetization       9.2000000

 Free energy of the ion-electron system (eV)
  ---------------------------------------------------
  alpha Z        PSCENC =       350.86543723
  Ewald energy   TEWEN  =     -6080.86046925
  -Hartree energ DENC   =     -1975.33677660
  -exchange      EXHF   =         0.00000000
  -V(xc)+E(xc)   XCENC  =       232.72223667
  PAW double counting   =      6722.83718483    -7045.45957438
  entropy T*S    EENTRO =        -0.00141234
  eigenvalues    EBANDS =      -377.60443969
  atomic energy  EATOM  =      8185.61741903
  Solvation  Ediel_sol  =         0.00000000
  ---------------------------------------------------
  free energy    TOTEN  =        12.77960549 eV

  energy without entropy =       12.78101783  energy(sigma->0) =       12.78007627


--------------------------------------------------------------------------------------------------------




--------------------------------------- Iteration      1(   3)  ---------------------------------------


     EDDAV:  cpu time      6.0358: real time      6.0348
       DOS:  cpu time      0.0030: real time      0.0030
    --------------------------------------------
      LOOP:  cpu time      6.0388: real time      6.0378

 eigenvalue-minimisations  : 11939
 total energy-change (2. order) :-0.4754072E+02  (-0.4495726E+02)
 number of electron      51.0000000 magnetization       9.2000000
 augmentation part       51.0000000 magnetization       9.2000000

 Free energy of the ion-electron system (eV)
  ---------------------------------------------------
  alpha Z        PSCENC =       350.86543723
  Ewald energy   TEWEN  =     -6080.86046925
  -Hartree energ DENC   =     -1975.33677660
  -exchange      EXHF   =         0.00000000
  -V(xc)+E(xc)   XCENC  =       232.72223667
  PAW double counting   =      6722.83718483    -7045.45957438
  entropy T*S    EENTRO =        -0.00173431
  eigenvalues    EBANDS =      -425.14483828
  atomic energy  EATOM  =      8185.61741903
  Solvation  Ediel_sol  =         0.00000000
  ---------------------------------------------------
  free energy    TOTEN  =       -34.76111507 eV

  energy without entropy =      -34.75938076  energy(sigma->0) =      -34.76053697


--------------------------------------------------------------------------------------------------------




--------------------------------------- Iteration      1(   4)  ---------------------------------------


     EDDAV:  cpu time      6.4144: real time      6.4130
       DOS:  cpu time      0.0030: real time      0.0030
    --------------------------------------------
      LOOP:  cpu time      6.4174: real time      6.4160

 eigenvalue-minimisations  : 12650
 total energy-change (2. order) :-0.1162722E+01  (-0.1158071E+01)
 number of electron      51.0000000 magnetization       9.2000000
 augmentation part       51.0000000 magnetization       9.2000000

 Free energy of the ion-electron system (eV)
  ---------------------------------------------------
  alpha Z        PSCENC =       350.86543723
  Ewald energy   TEWEN  =     -6080.86046925
  -Hartree energ DENC   =     -1975.33677660
  -exchange      EXHF   =         0.00000000
  -V(xc)+E(xc)   XCENC  =       232.72223667
  PAW double counting   =      6722.83718483    -7045.45957438
  entropy T*S    EENTRO =        -0.00220350
  eigenvalues    EBANDS =      -426.30709079
  atomic energy  EATOM  =      8185.61741903
  Solvation  Ediel_sol  =         0.00000000
  ---------------------------------------------------
  free energy    TOTEN  =       -35.92383676 eV

  energy without entropy =      -35.92163326  energy(sigma->0) =      -35.92310226


--------------------------------------------------------------------------------------------------------




--------------------------------------- Iteration      1(   5)  ---------------------------------------


     EDDAV:  cpu time      7.3481: real time      7.3462
       DOS:  cpu time      0.0030: real time      0.0030
    CHARGE:  cpu time      0.5181: real time      0.5180
    MIXING:  cpu time      0.0038: real time      0.0038
    --------------------------------------------
      LOOP:  cpu time      7.8731: real time      7.8710

 eigenvalue-minimisations  : 15258
 total energy-change (2. order) :-0.4248006E-01  (-0.4247676E-01)
 number of electron      50.9999999 magnetization       6.0946530
 augmentation part       28.1016603 magnetization       4.3535650

 Broyden mixing:
  rms(total) = 0.22958E+01    rms(broyden)= 0.22955E+01
  rms(prec ) = 0.44791E+01
  weight for this iteration     100.00

 Free energy of the ion-electron system (eV)
  ---------------------------------------------------
  alpha Z        PSCENC =       350.86543723
  Ewald energy   TEWEN  =     -6080.86046925
  -Hartree energ DENC   =     -1975.33677660
  -exchange      EXHF   =         0.00000000
  -V(xc)+E(xc)   XCENC  =       232.72223667
  PAW double counting   =      6722.83718483    -7045.45957438
  entropy T*S    EENTRO =        -0.00219855
  eigenvalues    EBANDS =      -426.34957580
  atomic energy  EATOM  =      8185.61741903
  Solvation  Ediel_sol  =         0.00000000
  ---------------------------------------------------
  free energy    TOTEN  =       -35.96631682 eV

  energy without entropy =      -35.96411828  energy(sigma->0) =      -35.96558397


--------------------------------------------------------------------------------------------------------




--------------------------------------- Iteration      1(   6)  ---------------------------------------


    POTLOK:  cpu time      0.0074: real time      0.0074
    SETDIJ:  cpu time      0.4624: real time      0.4623
     EDDAV:  cpu time      6.1020: real time      6.1006
       DOS:  cpu time      0.0033: real time      0.0033
    CHARGE:  cpu time      0.5032: real time      0.5030
    MIXING:  cpu time      0.0038: real time      0.0038
    --------------------------------------------
      LOOP:  cpu time      7.0822: real time      7.0805

 eigenvalue-minimisations  : 12048
 total energy-change (2. order) : 0.3860207E+01  (-0.4077873E+01)
 number of electron      50.9999999 magnetization       6.8056754
 augmentation part       31.2038076 magnetization       5.3274503

 Broyden mixing:
  rms(total) = 0.15049E+01    rms(broyden)= 0.15046E+01
  rms(prec ) = 0.28284E+01
  weight for this iteration     100.00

 eigenvalues of (default mixing * dielectric matrix)
  average eigenvalue GAMMA=   0.5402
  0.5402

 Free energy of the ion-electron system (eV)
  ---------------------------------------------------
  alpha Z        PSCENC =       350.86543723
  Ewald energy   TEWEN  =     -6080.86046925
  -Hartree energ DENC   =     -1826.36422894
  -exchange      EXHF   =         0.00000000
  -V(xc)+E(xc)   XCENC  =       225.17689884
  PAW double counting   =      6849.81309995    -7157.78014960
  entropy T*S    EENTRO =         0.00131995
  eigenvalues    EBANDS =      -578.57543663
  atomic energy  EATOM  =      8185.61741903
  Solvation  Ediel_sol  =         0.00000000
  ---------------------------------------------------
  free energy    TOTEN  =       -32.10610942 eV

  energy without entropy =      -32.10742937  energy(sigma->0) =      -32.10654940


--------------------------------------------------------------------------------------------------------




--------------------------------------- Iteration      1(   7)  ---------------------------------------


    POTLOK:  cpu time      0.0074: real time      0.0074
    SETDIJ:  cpu time      0.4611: real time      0.4609
     EDDAV:  cpu time      6.9883: real time      6.9867
       DOS:  cpu time      0.0031: real time      0.0031
    CHARGE:  cpu time      0.4988: real time      0.4987
    MIXING:  cpu time      0.0038: real time      0.0038
    --------------------------------------------
      LOOP:  cpu time      7.9626: real time      7.9607

 eigenvalue-minimisations  : 14262
 total energy-change (2. order) :-0.3227512E+01  (-0.2889472E+01)
 number of electron      50.9999999 magnetization       6.7693083
 augmentation part       30.6506223 magnetization       5.3347750

 Broyden mixing:
  rms(total) = 0.23468E+01    rms(broyden)= 0.23467E+01
  rms(prec ) = 0.57991E+01
  weight for this iteration     100.00

 eigenvalues of (default mixing * dielectric matrix)
  average eigenvalue GAMMA=   0.4918
  0.6973  0.2862

 Free energy of the ion-electron system (eV)
  ---------------------------------------------------
  alpha Z        PSCENC =       350.86543723
  Ewald energy   TEWEN  =     -6080.86046925
  -Hartree energ DENC   =     -1869.31592008
  -exchange      EXHF   =         0.00000000
  -V(xc)+E(xc)   XCENC  =       227.34960693
  PAW double counting   =      7070.25128228    -7387.44677384
  entropy T*S    EENTRO =        -0.00284661
  eigenvalues    EBANDS =      -531.79135678
  atomic energy  EATOM  =      8185.61741903
  Solvation  Ediel_sol  =         0.00000000
  ---------------------------------------------------
  free energy    TOTEN  =       -35.33362110 eV

  energy without entropy =      -35.33077449  energy(sigma->0) =      -35.33267223


--------------------------------------------------------------------------------------------------------




--------------------------------------- Iteration      1(   8)  ---------------------------------------


    POTLOK:  cpu time      0.0073: real time      0.0074
    SETDIJ:  cpu time      0.4623: real time      0.4622
     EDDAV:  cpu time      6.8291: real time      6.8276
       DOS:  cpu time      0.0032: real time      0.0032
    CHARGE:  cpu time      0.5001: real time      0.4999
    MIXING:  cpu time      0.0039: real time      0.0039
    --------------------------------------------
      LOOP:  cpu time      7.8059: real time      7.8041

 eigenvalue-minimisations  : 13769
 total energy-change (2. order) : 0.4041699E+01  (-0.5215617E+00)
 number of electron      50.9999999 magnetization       7.1618453
 augmentation part       30.3270601 magnetization       5.7100966

 Broyden mixing:
  rms(total) = 0.37732E+00    rms(broyden)= 0.37708E+00
  rms(prec ) = 0.51183E+00
  weight for this iteration     100.00

 eigenvalues of (default mixing * dielectric matrix)
  average eigenvalue GAMMA=   0.5557
  0.8000  0.6709  0.1960

 Free energy of the ion-electron system (eV)
  ---------------------------------------------------
  alpha Z        PSCENC =       350.86543723
  Ewald energy   TEWEN  =     -6080.86046925
  -Hartree energ DENC   =     -1861.95671819
  -exchange      EXHF   =         0.00000000
  -V(xc)+E(xc)   XCENC  =       227.22400184
  PAW double counting   =      7109.47248710    -7431.13182535
  entropy T*S    EENTRO =        -0.00070753
  eigenvalues    EBANDS =      -530.52154718
  atomic energy  EATOM  =      8185.61741903
  Solvation  Ediel_sol  =         0.00000000
  ---------------------------------------------------
  free energy    TOTEN  =       -31.29192232 eV

  energy without entropy =      -31.29121478  energy(sigma->0) =      -31.29168647


--------------------------------------------------------------------------------------------------------




--------------------------------------- Iteration      1(   9)  ---------------------------------------


    POTLOK:  cpu time      0.0073: real time      0.0073
    SETDIJ:  cpu time      0.4666: real time      0.4665
     EDDAV:  cpu time      6.6055: real time      6.6040
       DOS:  cpu time      0.0031: real time      0.0031
    CHARGE:  cpu time      0.5063: real time      0.5062
    MIXING:  cpu time      0.0040: real time      0.0039
    --------------------------------------------
      LOOP:  cpu time      7.5927: real time      7.5910

 eigenvalue-minimisations  : 13287
 total energy-change (2. order) :-0.5594164E-01  (-0.5179760E-01)
 number of electron      50.9999999 magnetization       8.0007485
 augmentation part       30.3212884 magnetization       6.4736269

 Broyden mixing:
  rms(total) = 0.31498E+00    rms(broyden)= 0.31492E+00
  rms(prec ) = 0.46552E+00
  weight for this iteration     100.00

 eigenvalues of (default mixing * dielectric matrix)
  average eigenvalue GAMMA=   0.9264
  2.1099  0.2023  0.5535  0.8399

 Free energy of the ion-electron system (eV)
  ---------------------------------------------------
  alpha Z        PSCENC =       350.86543723
  Ewald energy   TEWEN  =     -6080.86046925
  -Hartree energ DENC   =     -1856.28552692
  -exchange      EXHF   =         0.00000000
  -V(xc)+E(xc)   XCENC  =       227.23081233
  PAW double counting   =      7207.83242042    -7533.12538925
  entropy T*S    EENTRO =         0.00187459
  eigenvalues    EBANDS =      -532.62444213
  atomic energy  EATOM  =      8185.61741903
  Solvation  Ediel_sol  =         0.00000000
  ---------------------------------------------------
  free energy    TOTEN  =       -31.34786395 eV

  energy without entropy =      -31.34973854  energy(sigma->0) =      -31.34848882


--------------------------------------------------------------------------------------------------------




--------------------------------------- Iteration      1(  10)  ---------------------------------------


    POTLOK:  cpu time      0.0073: real time      0.0073
    SETDIJ:  cpu time      0.4613: real time      0.4611
     EDDAV:  cpu time      6.4248: real time      6.4233
       DOS:  cpu time      0.0032: real time      0.0032
    CHARGE:  cpu time      0.4993: real time      0.4992
    MIXING:  cpu time      0.0040: real time      0.0040
    --------------------------------------------
      LOOP:  cpu time      7.3998: real time      7.3981

 eigenvalue-minimisations  : 12769
 total energy-change (2. order) :-0.3543754E-01  (-0.5860646E-02)
 number of electron      50.9999999 magnetization       8.6929696
 augmentation part       30.4246826 magnetization       6.9845914

 Broyden mixing:
  rms(total) = 0.25436E+00    rms(broyden)= 0.25422E+00
  rms(prec ) = 0.36690E+00
  weight for this iteration     100.00

 eigenvalues of (default mixing * dielectric matrix)
  average eigenvalue GAMMA=   1.2653
  3.8698  0.2011  1.0334  0.6113  0.6113

 Free energy of the ion-electron system (eV)
  ---------------------------------------------------
  alpha Z        PSCENC =       350.86543723
  Ewald energy   TEWEN  =     -6080.86046925
  -Hartree energ DENC   =     -1848.77040457
  -exchange      EXHF   =         0.00000000
  -V(xc)+E(xc)   XCENC  =       227.39716230
  PAW double counting   =      7365.89081544    -7695.89532726
  entropy T*S    EENTRO =        -0.00128760
  eigenvalues    EBANDS =      -535.62664681
  atomic energy  EATOM  =      8185.61741903
  Solvation  Ediel_sol  =         0.00000000
  ---------------------------------------------------
  free energy    TOTEN  =       -31.38330149 eV

  energy without entropy =      -31.38201389  energy(sigma->0) =      -31.38287229


--------------------------------------------------------------------------------------------------------




--------------------------------------- Iteration      1(  11)  ---------------------------------------


    POTLOK:  cpu time      0.0073: real time      0.0073
    SETDIJ:  cpu time      0.4664: real time      0.4663
     EDDAV:  cpu time      7.0115: real time      7.0098
       DOS:  cpu time      0.0030: real time      0.0030
    CHARGE:  cpu time      0.4938: real time      0.4937
    MIXING:  cpu time      0.0040: real time      0.0040
    --------------------------------------------
      LOOP:  cpu time      7.9859: real time      7.9841

 eigenvalue-minimisations  : 14322
 total energy-change (2. order) :-0.2701645E-01  (-0.3119663E-02)
 number of electron      50.9999999 magnetization       8.6761765
 augmentation part       30.4231509 magnetization       6.8603207

 Broyden mixing:
  rms(total) = 0.19204E+00    rms(broyden)= 0.19192E+00
  rms(prec ) = 0.28090E+00
  weight for this iteration     100.00

 eigenvalues of (default mixing * dielectric matrix)
  average eigenvalue GAMMA=   1.0396
  2.7927  0.2012  0.7889  0.6089  0.9231  0.9231

 Free energy of the ion-electron system (eV)
  ---------------------------------------------------
  alpha Z        PSCENC =       350.86543723
  Ewald energy   TEWEN  =     -6080.86046925
  -Hartree energ DENC   =     -1848.19991917
  -exchange      EXHF   =         0.00000000
  -V(xc)+E(xc)   XCENC  =       227.77719297
  PAW double counting   =      7438.97253578    -7770.96590979
  entropy T*S    EENTRO =         0.00096995
  eigenvalues    EBANDS =      -534.61757468
  atomic energy  EATOM  =      8185.61741903
  Solvation  Ediel_sol  =         0.00000000
  ---------------------------------------------------
  free energy    TOTEN  =       -31.41031794 eV

  energy without entropy =      -31.41128789  energy(sigma->0) =      -31.41064125


--------------------------------------------------------------------------------------------------------




--------------------------------------- Iteration      1(  12)  ---------------------------------------


    POTLOK:  cpu time      0.0073: real time      0.0073
    SETDIJ:  cpu time      0.4613: real time      0.4611
     EDDAV:  cpu time      7.9331: real time      7.9313
       DOS:  cpu time      0.0031: real time      0.0031
    CHARGE:  cpu time      0.5005: real time      0.5004
    MIXING:  cpu time      0.0041: real time      0.0041
    --------------------------------------------
      LOOP:  cpu time      8.9094: real time      8.9073

 eigenvalue-minimisations  : 16431
 total energy-change (2. order) :-0.8300721E-03  (-0.1568310E-02)
 number of electron      50.9999999 magnetization       8.8843386
 augmentation part       30.4283671 magnetization       7.0511229

 Broyden mixing:
  rms(total) = 0.16940E+00    rms(broyden)= 0.16939E+00
  rms(prec ) = 0.17603E+00
  weight for this iteration     100.00

 eigenvalues of (default mixing * dielectric matrix)
  average eigenvalue GAMMA=   1.1285
  2.6652  1.5554  1.5554  0.2012  0.7737  0.5745  0.5745

 Free energy of the ion-electron system (eV)
  ---------------------------------------------------
  alpha Z        PSCENC =       350.86543723
  Ewald energy   TEWEN  =     -6080.86046925
  -Hartree energ DENC   =     -1849.23246547
  -exchange      EXHF   =         0.00000000
  -V(xc)+E(xc)   XCENC  =       227.78455276
  PAW double counting   =      7433.13105299    -7764.62992686
  entropy T*S    EENTRO =         0.00061792
  eigenvalues    EBANDS =      -534.08736634
  atomic energy  EATOM  =      8185.61741903
  Solvation  Ediel_sol  =         0.00000000
  ---------------------------------------------------
  free energy    TOTEN  =       -31.41114801 eV

  energy without entropy =      -31.41176593  energy(sigma->0) =      -31.41135398


--------------------------------------------------------------------------------------------------------




--------------------------------------- Iteration      1(  13)  ---------------------------------------


    POTLOK:  cpu time      0.0073: real time      0.0073
    SETDIJ:  cpu time      0.4603: real time      0.4602
     EDDAV:  cpu time      7.0830: real time      7.0813
       DOS:  cpu time      0.0030: real time      0.0030
    CHARGE:  cpu time      0.4970: real time      0.4968
    MIXING:  cpu time      0.0041: real time      0.0041
    --------------------------------------------
      LOOP:  cpu time      8.0548: real time      8.0528

 eigenvalue-minimisations  : 14441
 total energy-change (2. order) :-0.7091769E-02  (-0.4758205E-03)
 number of electron      50.9999999 magnetization       9.2105396
 augmentation part       30.4246872 magnetization       7.3495826

 Broyden mixing:
  rms(total) = 0.13449E+00    rms(broyden)= 0.13447E+00
  rms(prec ) = 0.14273E+00
  weight for this iteration     100.00

 eigenvalues of (default mixing * dielectric matrix)
  average eigenvalue GAMMA=   1.2078
  2.9549  1.9209  1.9209  0.2012  0.6687  0.6687  0.6638  0.6638

 Free energy of the ion-electron system (eV)
  ---------------------------------------------------
  alpha Z        PSCENC =       350.86543723
  Ewald energy   TEWEN  =     -6080.86046925
  -Hartree energ DENC   =     -1849.63022278
  -exchange      EXHF   =         0.00000000
  -V(xc)+E(xc)   XCENC  =       227.93138505
  PAW double counting   =      7446.89481576    -7778.53929068
  entropy T*S    EENTRO =         0.00033083
  eigenvalues    EBANDS =      -533.69764497
  atomic energy  EATOM  =      8185.61741903
  Solvation  Ediel_sol  =         0.00000000
  ---------------------------------------------------
  free energy    TOTEN  =       -31.41823978 eV

  energy without entropy =      -31.41857061  energy(sigma->0) =      -31.41835005


--------------------------------------------------------------------------------------------------------




--------------------------------------- Iteration      1(  14)  ---------------------------------------


    POTLOK:  cpu time      0.0073: real time      0.0073
    SETDIJ:  cpu time      0.4617: real time      0.4616
     EDDAV:  cpu time      6.9230: real time      6.9213
       DOS:  cpu time      0.0029: real time      0.0029
    CHARGE:  cpu time      0.4996: real time      0.4995
    MIXING:  cpu time      0.0042: real time      0.0042
    --------------------------------------------
      LOOP:  cpu time      7.8987: real time      7.8967

 eigenvalue-minimisations  : 14070
 total energy-change (2. order) :-0.3114069E-02  (-0.1142267E-02)
 number of electron      50.9999999 magnetization       9.0119857
 augmentation part       30.4057379 magnetization       7.1421090

 Broyden mixing:
  rms(total) = 0.57988E-01    rms(broyden)= 0.57947E-01
  rms(prec ) = 0.64892E-01
  weight for this iteration     100.00

 eigenvalues of (default mixing * dielectric matrix)
  average eigenvalue GAMMA=   1.1604
  3.0576  1.8223  1.8223  0.2012  0.8266  0.8266  0.6523  0.6523  0.5822

 Free energy of the ion-electron system (eV)
  ---------------------------------------------------
  alpha Z        PSCENC =       350.86543723
  Ewald energy   TEWEN  =     -6080.86046925
  -Hartree energ DENC   =     -1850.35610218
  -exchange      EXHF   =         0.00000000
  -V(xc)+E(xc)   XCENC  =       228.16574884
  PAW double counting   =      7479.86505676    -7811.90079513
  entropy T*S    EENTRO =        -0.00027868
  eigenvalues    EBANDS =      -532.81737046
  atomic energy  EATOM  =      8185.61741903
  Solvation  Ediel_sol  =         0.00000000
  ---------------------------------------------------
  free energy    TOTEN  =       -31.42135385 eV

  energy without entropy =      -31.42107516  energy(sigma->0) =      -31.42126095


--------------------------------------------------------------------------------------------------------




--------------------------------------- Iteration      1(  15)  ---------------------------------------


    POTLOK:  cpu time      0.0074: real time      0.0074
    SETDIJ:  cpu time      0.4606: real time      0.4604
     EDDAV:  cpu time      6.8624: real time      6.8610
       DOS:  cpu time      0.0030: real time      0.0030
    CHARGE:  cpu time      0.4977: real time      0.4976
    MIXING:  cpu time      0.0043: real time      0.0043
    --------------------------------------------
      LOOP:  cpu time      7.8354: real time      7.8337

 eigenvalue-minimisations  : 13970
 total energy-change (2. order) : 0.7878901E-03  (-0.5987385E-03)
 number of electron      50.9999999 magnetization       9.2286510
 augmentation part       30.4131049 magnetization       7.3606678

 Broyden mixing:
  rms(total) = 0.65781E-01    rms(broyden)= 0.65778E-01
  rms(prec ) = 0.69682E-01
  weight for this iteration     100.00

 eigenvalues of (default mixing * dielectric matrix)
  average eigenvalue GAMMA=   1.1843
  2.9494  2.0652  2.0652  0.2012  1.0151  1.0151  0.6293  0.6293  0.6773  0.5963

 Free energy of the ion-electron system (eV)
  ---------------------------------------------------
  alpha Z        PSCENC =       350.86543723
  Ewald energy   TEWEN  =     -6080.86046925
  -Hartree energ DENC   =     -1850.09281475
  -exchange      EXHF   =         0.00000000
  -V(xc)+E(xc)   XCENC  =       228.02892549
  PAW double counting   =      7470.98715407    -7802.86897590
  entropy T*S    EENTRO =         0.00014678
  eigenvalues    EBANDS =      -533.09738866
  atomic energy  EATOM  =      8185.61741903
  Solvation  Ediel_sol  =         0.00000000
  ---------------------------------------------------
  free energy    TOTEN  =       -31.42056596 eV

  energy without entropy =      -31.42071274  energy(sigma->0) =      -31.42061488


--------------------------------------------------------------------------------------------------------




--------------------------------------- Iteration      1(  16)  ---------------------------------------


    POTLOK:  cpu time      0.0074: real time      0.0074
    SETDIJ:  cpu time      0.4617: real time      0.4616
     EDDAV:  cpu time      6.7898: real time      6.7882
       DOS:  cpu time      0.0030: real time      0.0030
    CHARGE:  cpu time      0.5025: real time      0.5024
    MIXING:  cpu time      0.0044: real time      0.0044
    --------------------------------------------
      LOOP:  cpu time      7.7689: real time      7.7669

 eigenvalue-minimisations  : 13805
 total energy-change (2. order) :-0.1662710E-02  (-0.3486827E-03)
 number of electron      50.9999999 magnetization       9.1990023
 augmentation part       30.4035179 magnetization       7.3249432

 Broyden mixing:
  rms(total) = 0.17445E-01    rms(broyden)= 0.17424E-01
  rms(prec ) = 0.26813E-01
  weight for this iteration     100.00

 eigenvalues of (default mixing * dielectric matrix)
  average eigenvalue GAMMA=   1.1488
  2.6988  2.2187  2.2187  0.2012  1.0656  1.0656  0.6464  0.6464  0.6846  0.6846
  0.5066

 Free energy of the ion-electron system (eV)
  ---------------------------------------------------
  alpha Z        PSCENC =       350.86543723
  Ewald energy   TEWEN  =     -6080.86046925
  -Hartree energ DENC   =     -1850.58417513
  -exchange      EXHF   =         0.00000000
  -V(xc)+E(xc)   XCENC  =       228.18569381
  PAW double counting   =      7489.77881195    -7821.85661997
  entropy T*S    EENTRO =        -0.00024669
  eigenvalues    EBANDS =      -532.56807963
  atomic energy  EATOM  =      8185.61741903
  Solvation  Ediel_sol  =         0.00000000
  ---------------------------------------------------
  free energy    TOTEN  =       -31.42222866 eV

  energy without entropy =      -31.42198197  energy(sigma->0) =      -31.42214643


--------------------------------------------------------------------------------------------------------




--------------------------------------- Iteration      1(  17)  ---------------------------------------


    POTLOK:  cpu time      0.0074: real time      0.0074
    SETDIJ:  cpu time      0.4641: real time      0.4640
     EDDAV:  cpu time      6.8388: real time      6.8372
       DOS:  cpu time      0.0030: real time      0.0030
    CHARGE:  cpu time      0.4943: real time      0.4941
    MIXING:  cpu time      0.0044: real time      0.0044
    --------------------------------------------
      LOOP:  cpu time      7.8120: real time      7.8101

 eigenvalue-minimisations  : 13919
 total energy-change (2. order) :-0.1442770E-03  (-0.3766643E-04)
 number of electron      50.9999999 magnetization       9.2136461
 augmentation part       30.4027635 magnetization       7.3407578

 Broyden mixing:
  rms(total) = 0.65984E-02    rms(broyden)= 0.65980E-02
  rms(prec ) = 0.75148E-02
  weight for this iteration     100.00

 eigenvalues of (default mixing * dielectric matrix)
  average eigenvalue GAMMA=   1.1657
  2.7812  1.9729  1.9729  1.8903  1.2055  0.2012  0.7656  0.7656  0.6491  0.6491
  0.6129  0.5220

 Free energy of the ion-electron system (eV)
  ---------------------------------------------------
  alpha Z        PSCENC =       350.86543723
  Ewald energy   TEWEN  =     -6080.86046925
  -Hartree energ DENC   =     -1850.55865222
  -exchange      EXHF   =         0.00000000
  -V(xc)+E(xc)   XCENC  =       228.16454739
  PAW double counting   =      7487.84576087    -7819.87795106
  entropy T*S    EENTRO =        -0.00015781
  eigenvalues    EBANDS =      -532.61830712
  atomic energy  EATOM  =      8185.61741903
  Solvation  Ediel_sol  =         0.00000000
  ---------------------------------------------------
  free energy    TOTEN  =       -31.42237294 eV

  energy without entropy =      -31.42221513  energy(sigma->0) =      -31.42232034


--------------------------------------------------------------------------------------------------------




--------------------------------------- Iteration      1(  18)  ---------------------------------------


    POTLOK:  cpu time      0.0074: real time      0.0074
    SETDIJ:  cpu time      0.4597: real time      0.4596
     EDDAV:  cpu time      7.5795: real time      7.5776
       DOS:  cpu time      0.0030: real time      0.0030
    CHARGE:  cpu time      0.4955: real time      0.4954
    MIXING:  cpu time      0.0045: real time      0.0045
    --------------------------------------------
      LOOP:  cpu time      8.5496: real time      8.5474

 eigenvalue-minimisations  : 15750
 total energy-change (2. order) : 0.9742895E-05  (-0.5506174E-05)
 number of electron      50.9999999 magnetization       9.1948267
 augmentation part       30.4034889 magnetization       7.3221540

 Broyden mixing:
  rms(total) = 0.71928E-02    rms(broyden)= 0.71925E-02
  rms(prec ) = 0.12114E-01
  weight for this iteration     100.00

 eigenvalues of (default mixing * dielectric matrix)
  average eigenvalue GAMMA=   1.1858
  2.5114  2.5114  2.1826  2.1826  1.1483  0.2012  0.7864  0.7864  0.7218  0.6550
  0.6550  0.5882  0.4844

 Free energy of the ion-electron system (eV)
  ---------------------------------------------------
  alpha Z        PSCENC =       350.86543723
  Ewald energy   TEWEN  =     -6080.86046925
  -Hartree energ DENC   =     -1850.56285365
  -exchange      EXHF   =         0.00000000
  -V(xc)+E(xc)   XCENC  =       228.17485910
  PAW double counting   =      7489.26641550    -7821.29634304
  entropy T*S    EENTRO =        -0.00019195
  eigenvalues    EBANDS =      -532.62663617
  atomic energy  EATOM  =      8185.61741903
  Solvation  Ediel_sol  =         0.00000000
  ---------------------------------------------------
  free energy    TOTEN  =       -31.42236320 eV

  energy without entropy =      -31.42217125  energy(sigma->0) =      -31.42229922


--------------------------------------------------------------------------------------------------------




--------------------------------------- Iteration      1(  19)  ---------------------------------------


    POTLOK:  cpu time      0.0073: real time      0.0073
    SETDIJ:  cpu time      0.4624: real time      0.4623
     EDDAV:  cpu time      7.5443: real time      7.5426
       DOS:  cpu time      0.0031: real time      0.0031
    CHARGE:  cpu time      0.4991: real time      0.4989
    MIXING:  cpu time      0.0046: real time      0.0046
    --------------------------------------------
      LOOP:  cpu time      8.5209: real time      8.5188

 eigenvalue-minimisations  : 15651
 total energy-change (2. order) :-0.1532077E-04  (-0.6758145E-05)
 number of electron      50.9999999 magnetization       9.1985752
 augmentation part       30.4038415 magnetization       7.3264480

 Broyden mixing:
  rms(total) = 0.10906E-02    rms(broyden)= 0.10874E-02
  rms(prec ) = 0.13934E-02
  weight for this iteration     100.00

 eigenvalues of (default mixing * dielectric matrix)
  average eigenvalue GAMMA=   1.1812
  2.7040  2.5687  2.1446  2.1446  0.2012  1.0790  1.0619  0.7984  0.7984  0.6629
  0.6629  0.6113  0.6113  0.4876

 Free energy of the ion-electron system (eV)
  ---------------------------------------------------
  alpha Z        PSCENC =       350.86543723
  Ewald energy   TEWEN  =     -6080.86046925
  -Hartree energ DENC   =     -1850.54457567
  -exchange      EXHF   =         0.00000000
  -V(xc)+E(xc)   XCENC  =       228.16221344
  PAW double counting   =      7488.14900442    -7820.14723372
  entropy T*S    EENTRO =        -0.00014822
  eigenvalues    EBANDS =      -532.66402577
  atomic energy  EATOM  =      8185.61741903
  Solvation  Ediel_sol  =         0.00000000
  ---------------------------------------------------
  free energy    TOTEN  =       -31.42237852 eV

  energy without entropy =      -31.42223030  energy(sigma->0) =      -31.42232911


--------------------------------------------------------------------------------------------------------




--------------------------------------- Iteration      1(  20)  ---------------------------------------


    POTLOK:  cpu time      0.0074: real time      0.0074
    SETDIJ:  cpu time      0.4615: real time      0.4614
     EDDAV:  cpu time      5.6482: real time      5.6469
       DOS:  cpu time      0.0030: real time      0.0030
    --------------------------------------------
      LOOP:  cpu time      6.1202: real time      6.1187

 eigenvalue-minimisations  : 10839
 total energy-change (2. order) : 0.1337426E-06  (-0.5016246E-06)
 number of electron      50.9999999 magnetization       9.1985752
 augmentation part       30.4038415 magnetization       7.3264480

 Free energy of the ion-electron system (eV)
  ---------------------------------------------------
  alpha Z        PSCENC =       350.86543723
  Ewald energy   TEWEN  =     -6080.86046925
  -Hartree energ DENC   =     -1850.56682744
  -exchange      EXHF   =         0.00000000
  -V(xc)+E(xc)   XCENC  =       228.16549621
  PAW double counting   =      7488.54764764    -7820.55092453
  entropy T*S    EENTRO =        -0.00015470
  eigenvalues    EBANDS =      -532.64000257
  atomic energy  EATOM  =      8185.61741903
  Solvation  Ediel_sol  =         0.00000000
  ---------------------------------------------------
  free energy    TOTEN  =       -31.42237839 eV

  energy without entropy =      -31.42222368  energy(sigma->0) =      -31.42232682


--------------------------------------------------------------------------------------------------------




 average (electrostatic) potential at core
  the test charge radii are     0.9500  1.0452
  (the norm of the test charge is              1.0000)
       1 -73.6446       2 -73.6446       3 -73.6446       4 -78.6872
 
 
 
 E-fermi :   9.6805     XC(G=0): -13.4717     alpha+bet :-17.2351

 val. band max:        9.6793601705   @ k =   0.4615   0.1538   0.0000
 cond. band min:       9.6809032982   @ k =   0.3846   0.3077   0.2308
 fundamental gap:      0.0015431277
 Fermi energy:         9.6804717874

 spin component 1

 k-point     1 :       0.0000    0.0000    0.0000
  band No.  band energies     occupation 
      1     -44.7282      1.00000
      2     -44.7282      1.00000
      3     -44.7282      1.00000
      4     -44.5932      1.00000
      5     -44.5932      1.00000
      6     -44.5932      1.00000
      7     -44.4556      1.00000
      8     -44.4556      1.00000
      9     -44.4556      1.00000
     10       1.1128      1.00000
     11       4.5404      1.00000
     12       4.6570      1.00000
     13       4.6570      1.00000
     14       5.2901      1.00000
     15       5.2901      1.00000
     16       5.2901      1.00000
     17       7.2735      1.00000
     18       7.2735      1.00000
     19       7.2735      1.00000
     20       8.2957      1.00000
     21       8.2957      1.00000
     22       9.1013      1.00000
     23       9.1013      1.00000
     24       9.1273      1.00000
     25       9.4626      1.00430
     26       9.4626      1.00430
     27       9.4626      1.00430
     28       9.6264      0.89162
     29       9.6264      0.89162
     30       9.6264      0.89162
     31      12.2825      0.00000
     32      12.2825      0.00000
     33      12.2825      0.00000
     34      19.2564      0.00000
     35      19.3415      0.00000

 k-point     2 :       0.0769    0.0000    0.0000
  band No.  band energies     occupation 
      1     -44.7260      1.00000
      2     -44.7260      1.00000
      3     -44.7249      1.00000
      4     -44.5938      1.00000
      5     -44.5938      1.00000
      6     -44.5934      1.00000
      7     -44.4594      1.00000
      8     -44.4571      1.00000
      9     -44.4571      1.00000
     10       1.1895      1.00000
     11       4.5745      1.00000
     12       4.6821      1.00000
     13       4.7000      1.00000
     14       5.3160      1.00000
     15       5.3207      1.00000
     16       5.3207      1.00000
     17       7.2413      1.00000
     18       7.2981      1.00000
     19       7.2981      1.00000
     20       8.2663      1.00000
     21       8.3069      1.00000
     22       9.0624      1.00000
     23       9.0751      1.00000
     24       9.1031      1.00000
     25       9.3052      1.00000
     26       9.3052      1.00000
     27       9.4626      1.00430
     28       9.5278      1.02642
     29       9.5278      1.02642
     30       9.6265      0.89122
     31      11.8963      0.00000
     32      12.5519      0.00000
     33      12.5519      0.00000
     34      19.2946      0.00000
     35      19.3514      0.00000

 k-point     3 :       0.1538    0.0000    0.0000
  band No.  band energies     occupation 
      1     -44.7198      1.00000
      2     -44.7198      1.00000
      3     -44.7152      1.00000
      4     -44.5957      1.00000
      5     -44.5957      1.00000
      6     -44.5940      1.00000
      7     -44.4706      1.00000
      8     -44.4616      1.00000
      9     -44.4616      1.00000
     10       1.4171      1.00000
     11       4.6525      1.00000
     12       4.7685      1.00000
     13       4.8244      1.00000
     14       5.3927      1.00000
     15       5.4126      1.00000
     16       5.4126      1.00000
     17       7.1474      1.00000
     18       7.3715      1.00000
     19       7.3715      1.00000
     20       8.1812      1.00000
     21       8.3396      1.00000
     22       8.8521      1.00000
     23       8.8521      1.00000
     24       8.9495      1.00000
     25       8.9687      1.00000
     26       9.0626      1.00000
     27       9.3745      1.00007
     28       9.3745      1.00007
     29       9.4627      1.00432
     30       9.6267      0.89017
     31      10.9840     -0.00000
     32      13.2042      0.00000
     33      13.2042      0.00000
     34      19.3372      0.00000
     35      19.3822      0.00000

 k-point     4 :       0.2308    0.0000    0.0000
  band No.  band energies     occupation 
      1     -44.7103      1.00000
      2     -44.7103      1.00000
      3     -44.6997      1.00000
      4     -44.5990      1.00000
      5     -44.5990      1.00000
      6     -44.5947      1.00000
      7     -44.4881      1.00000
      8     -44.4680      1.00000
      9     -44.4680      1.00000
     10       1.7877      1.00000
     11       4.7116      1.00000
     12       4.9346      1.00000
     13       5.0145      1.00000
     14       5.5167      1.00000
     15       5.5661      1.00000
     16       5.5661      1.00000
     17       6.9990      1.00000
     18       7.4923      1.00000
     19       7.4923      1.00000
     20       8.0510      1.00000
     21       8.3058      1.00000
     22       8.3058      1.00000
     23       8.3920      1.00000
     24       8.7749      1.00000
     25       8.7971      1.00000
     26       9.0053      1.00000
     27       9.1693      1.00000
     28       9.1693      1.00000
     29       9.4628      1.00434
     30       9.6269      0.88892
     31       9.9135     -0.00239
     32      14.0492      0.00000
     33      14.0492      0.00000
     34      19.4102      0.00000
     35      19.4365      0.00000

 k-point     5 :       0.3077    0.0000    0.0000
  band No.  band energies     occupation 
      1     -44.6989      1.00000
      2     -44.6989      1.00000
      3     -44.6798      1.00000
      4     -44.6036      1.00000
      5     -44.6036      1.00000
      6     -44.5955      1.00000
      7     -44.5102      1.00000
      8     -44.4750      1.00000
      9     -44.4750      1.00000
     10       2.2856      1.00000
     11       4.6954      1.00000
     12       5.1485      1.00000
     13       5.2412      1.00000
     14       5.6827      1.00000
     15       5.7813      1.00000
     16       5.7813      1.00000
     17       6.8073      1.00000
     18       7.6578      1.00000
     19       7.6578      1.00000
     20       7.7621      1.00000
     21       7.7621      1.00000
     22       7.8955      1.00000
     23       8.4585      1.00000
     24       8.5632      1.00000
     25       8.5904      1.00000
     26       8.9199      1.00000
     27       8.9199      1.00000
     28       8.9225      1.00000
     29       8.9314      1.00000
     30       9.4630      1.00436
     31       9.6272      0.88729
     32      15.0030      0.00000
     33      15.0030      0.00000
     34      19.5152      0.00000
     35      19.5196      0.00000

 k-point     6 :       0.3846    0.0000    0.0000
  band No.  band energies     occupation 
      1     -44.6877      1.00000
      2     -44.6877      1.00000
      3     -44.6582      1.00000
      4     -44.6089      1.00000
      5     -44.6089      1.00000
      6     -44.5962      1.00000
      7     -44.5336      1.00000
      8     -44.4810      1.00000
      9     -44.4810      1.00000
     10       2.8820      1.00000
     11       4.5180      1.00000
     12       5.3548      1.00000
     13       5.4568      1.00000
     14       5.8826      1.00000
     15       6.0583      1.00000
     16       6.0583      1.00000
     17       6.5860      1.00000
     18       7.2552      1.00000
     19       7.2552      1.00000
     20       7.7495      1.00000
     21       7.8637      1.00000
     22       7.8637      1.00000
     23       8.1703      1.00000
     24       8.3676      1.00000
     25       8.3794      1.00000
     26       8.5483      1.00000
     27       8.6469      1.00000
     28       8.6469      1.00000
     29       8.8465      1.00000
     30       9.4631      1.00439
     31       9.6275      0.88590
     32      16.0308      0.00000
     33      16.0308      0.00000
     34      19.4054      0.00000
     35      19.4054      0.00000

 k-point     7 :       0.4615    0.0000    0.0000
  band No.  band energies     occupation 
      1     -44.6803      1.00000
      2     -44.6803      1.00000
      3     -44.6413      1.00000
      4     -44.6130      1.00000
      5     -44.6130      1.00000
      6     -44.5966      1.00000
      7     -44.5516      1.00000
      8     -44.4844      1.00000
      9     -44.4844      1.00000
     10       3.5224      1.00000
     11       4.1100      1.00000
     12       5.4865      1.00000
     13       5.5945      1.00000
     14       6.1047      1.00000
     15       6.3520      1.00000
     16       6.3953      1.00000
     17       6.3953      1.00000
     18       6.8006      1.00000
     19       6.8006      1.00000
     20       7.6738      1.00000
     21       7.7720      1.00000
     22       8.1030      1.00000
     23       8.1030      1.00000
     24       8.2366      1.00000
     25       8.2503      1.00000
     26       8.3704      1.00000
     27       8.3704      1.00000
     28       8.6283      1.00000
     29       8.7628      1.00000
     30       9.4632      1.00440
     31       9.6277      0.88505
     32      17.1148      0.00000
     33      17.1148      0.00000
     34      18.2435      0.00000
     35      18.2435      0.00000

 k-point     8 :       0.0769    0.0769    0.0000
  band No.  band energies     occupation 
      1     -44.7271      1.00000
      2     -44.7239      1.00000
      3     -44.7186      1.00000
      4     -44.5973      1.00000
      5     -44.5944      1.00000
      6     -44.5907      1.00000
      7     -44.4663      1.00000
      8     -44.4588      1.00000
      9     -44.4555      1.00000
     10       1.2657      1.00000
     11       4.6100      1.00000
     12       4.7151      1.00000
     13       4.7341      1.00000
     14       5.3445      1.00000
     15       5.3479      1.00000
     16       5.3507      1.00000
     17       7.2232      1.00000
     18       7.3093      1.00000
     19       7.3203      1.00000
     20       8.2577      1.00000
     21       8.2996      1.00000
     22       9.0301      1.00000
     23       9.0388      1.00000
     24       9.0624      1.00000
     25       9.1664      1.00000
     26       9.2256      1.00000
     27       9.3557      1.00002
     28       9.4282      1.00104
     29       9.5122      1.01931
     30       9.5878      1.01572
     31      12.1562      0.00000
     32      12.1787      0.00000
     33      12.7928      0.00000
     34      19.3308      0.00000
     35      19.8037      0.00000

 k-point     9 :       0.1538    0.0769    0.0000
  band No.  band energies     occupation 
      1     -44.7235      1.00000
      2     -44.7177      1.00000
      3     -44.7069      1.00000
      4     -44.6018      1.00000
      5     -44.5962      1.00000
      6     -44.5884      1.00000
      7     -44.4793      1.00000
      8     -44.4633      1.00000
      9     -44.4576      1.00000
     10       1.4919      1.00000
     11       4.6937      1.00000
     12       4.8006      1.00000
     13       4.8543      1.00000
     14       5.4208      1.00000
     15       5.4374      1.00000
     16       5.4404      1.00000
     17       7.1384      1.00000
     18       7.3756      1.00000
     19       7.3858      1.00000
     20       8.1837      1.00000
     21       8.3295      1.00000
     22       8.7498      1.00000
     23       8.7627      1.00000
     24       8.9248      1.00000
     25       8.9689      1.00000
     26       8.9907      1.00000
     27       9.1782      1.00000
     28       9.3631      1.00003
     29       9.4335      1.00132
     30       9.5743      1.03043
     31      11.2779     -0.00000
     32      12.8045      0.00000
     33      13.4000      0.00000
     34      19.3574      0.00000
     35      19.8873      0.00000

 k-point    10 :       0.2308    0.0769    0.0000
  band No.  band energies     occupation 
      1     -44.7152      1.00000
      2     -44.7081      1.00000
      3     -44.6914      1.00000
      4     -44.6073      1.00000
      5     -44.5993      1.00000
      6     -44.5867      1.00000
      7     -44.4970      1.00000
      8     -44.4699      1.00000
      9     -44.4630      1.00000
     10       1.8602      1.00000
     11       4.7583      1.00000
     12       4.9647      1.00000
     13       5.0431      1.00000
     14       5.5429      1.00000
     15       5.5884      1.00000
     16       5.5894      1.00000
     17       6.9951      1.00000
     18       7.4896      1.00000
     19       7.4943      1.00000
     20       8.0639      1.00000
     21       8.2220      1.00000
     22       8.2532      1.00000
     23       8.3892      1.00000
     24       8.7542      1.00000
     25       8.7680      1.00000
     26       8.8043      1.00000
     27       9.0359      1.00000
     28       9.1674      1.00000
     29       9.4212      1.00076
     30       9.5739      1.03070
     31      10.2863     -0.00000
     32      13.6066      0.00000
     33      14.2118      0.00000
     34      19.3725      0.00000
     35      19.9866      0.00000

 k-point    11 :       0.3077    0.0769    0.0000
  band No.  band energies     occupation 
      1     -44.7035      1.00000
      2     -44.6966      1.00000
      3     -44.6736      1.00000
      4     -44.6132      1.00000
      5     -44.6037      1.00000
      6     -44.5853      1.00000
      7     -44.5179      1.00000
      8     -44.4772      1.00000
      9     -44.4699      1.00000
     10       2.3548      1.00000
     11       4.7460      1.00000
     12       5.1797      1.00000
     13       5.2703      1.00000
     14       5.7060      1.00000
     15       5.7960      1.00000
     16       5.8001      1.00000
     17       6.8082      1.00000
     18       7.6073      1.00000
     19       7.6587      1.00000
     20       7.6906      1.00000
     21       7.7337      1.00000
     22       7.9455      1.00000
     23       8.3837      1.00000
     24       8.4681      1.00000
     25       8.5551      1.00000
     26       8.5944      1.00000
     27       8.8992      1.00000
     28       8.9189      1.00000
     29       9.4188      1.00068
     30       9.4867      1.00973
     31       9.5743      1.03041
     32      14.4915      0.00000
     33      15.1433      0.00000
     34      19.1447      0.00000
     35      20.0000      0.00000

 k-point    12 :       0.3846    0.0769    0.0000
  band No.  band energies     occupation 
      1     -44.6905      1.00000
      2     -44.6853      1.00000
      3     -44.6576      1.00000
      4     -44.6178      1.00000
      5     -44.6090      1.00000
      6     -44.5842      1.00000
      7     -44.5395      1.00000
      8     -44.4834      1.00000
      9     -44.4764      1.00000
     10       2.9471      1.00000
     11       4.5721      1.00000
     12       5.3892      1.00000
     13       5.4889      1.00000
     14       5.9024      1.00000
     15       6.0575      1.00000
     16       6.0724      1.00000
     17       6.5918      1.00000
     18       7.1970      1.00000
     19       7.2430      1.00000
     20       7.6291      1.00000
     21       7.8640      1.00000
     22       7.9282      1.00000
     23       7.9692      1.00000
     24       8.3583      1.00000
     25       8.3838      1.00000
     26       8.5665      1.00000
     27       8.6460      1.00000
     28       8.7068      1.00000
     29       9.0380      1.00000
     30       9.4180      1.00065
     31       9.5747      1.03015
     32      15.4235      0.00000
     33      16.1560      0.00000
     34      18.3263      0.00000
     35      19.5089      0.00000

 k-point    13 :       0.4615    0.0769    0.0000
  band No.  band energies     occupation 
      1     -44.6805      1.00000
      2     -44.6778      1.00000
      3     -44.6506      1.00000
      4     -44.6169      1.00000
      5     -44.6130      1.00000
      6     -44.5829      1.00000
      7     -44.5563      1.00000
      8     -44.4869      1.00000
      9     -44.4803      1.00000
     10       3.5832      1.00000
     11       4.1670      1.00000
     12       5.5246      1.00000
     13       5.6303      1.00000
     14       6.1205      1.00000
     15       6.3623      1.00000
     16       6.3735      1.00000
     17       6.4033      1.00000
     18       6.7591      1.00000
     19       6.8000      1.00000
     20       7.5741      1.00000
     21       7.6375      1.00000
     22       8.1028      1.00000
     23       8.1621      1.00000
     24       8.2369      1.00000
     25       8.2507      1.00000
     26       8.3697      1.00000
     27       8.4233      1.00000
     28       8.6873      1.00000
     29       8.8377      1.00000
     30       9.4178      1.00064
     31       9.5749      1.03000
     32      16.3833      0.00000
     33      17.2297      0.00000
     34      17.3578      0.00000
     35      18.3513      0.00000

 k-point    14 :       0.1538    0.1538    0.0000
  band No.  band energies     occupation 
      1     -44.7239      1.00000
      2     -44.7114      1.00000
      3     -44.6932      1.00000
      4     -44.6095      1.00000
      5     -44.5977      1.00000
      6     -44.5825      1.00000
      7     -44.4951      1.00000
      8     -44.4682      1.00000
      9     -44.4553      1.00000
     10       1.7139      1.00000
     11       4.8021      1.00000
     12       4.8826      1.00000
     13       4.9561      1.00000
     14       5.5016      1.00000
     15       5.5145      1.00000
     16       5.5234      1.00000
     17       7.0866      1.00000
     18       7.4145      1.00000
     19       7.4272      1.00000
     20       8.1550      1.00000
     21       8.3375      1.00000
     22       8.4913      1.00000
     23       8.5116      1.00000
     24       8.5775      1.00000
     25       8.8295      1.00000
     26       8.9798      1.00000
     27       8.9931      1.00000
     28       9.3236      1.00000
     29       9.3626      1.00003
     30       9.4789      1.00760
     31      11.8709      0.00000
     32      11.9365      0.00000
     33      13.9233      0.00000
     34      19.3095      0.00000
     35      20.6345      0.00000

 k-point    15 :       0.2308    0.1538    0.0000
  band No.  band energies     occupation 
      1     -44.7193      1.00000
      2     -44.7017      1.00000
      3     -44.6773      1.00000
      4     -44.6179      1.00000
      5     -44.6003      1.00000
      6     -44.5767      1.00000
      7     -44.5139      1.00000
      8     -44.4754      1.00000
      9     -44.4569      1.00000
     10       2.0750      1.00000
     11       4.8930      1.00000
     12       5.0409      1.00000
     13       5.1319      1.00000
     14       5.6206      1.00000
     15       5.6551      1.00000
     16       5.6592      1.00000
     17       6.9707      1.00000
     18       7.4865      1.00000
     19       7.5145      1.00000
     20       8.0119      1.00000
     21       8.0691      1.00000
     22       8.0915      1.00000
     23       8.2475      1.00000
     24       8.4142      1.00000
     25       8.6791      1.00000
     26       8.8097      1.00000
     27       8.9253      1.00000
     28       9.1613      1.00000
     29       9.3157      1.00000
     30       9.4427      1.00196
     31      10.9156     -0.00000
     32      12.6444      0.00000
     33      14.6629      0.00000
     34      18.8762      0.00000
     35      19.9558      0.00000

 k-point    16 :       0.3077    0.1538    0.0000
  band No.  band energies     occupation 
      1     -44.7101      1.00000
      2     -44.6899      1.00000
      3     -44.6624      1.00000
      4     -44.6258      1.00000
      5     -44.6043      1.00000
      6     -44.5713      1.00000
      7     -44.5338      1.00000
      8     -44.4834      1.00000
      9     -44.4616      1.00000
     10       2.5597      1.00000
     11       4.8934      1.00000
     12       5.2640      1.00000
     13       5.3545      1.00000
     14       5.7755      1.00000
     15       5.8409      1.00000
     16       5.8559      1.00000
     17       6.8043      1.00000
     18       7.5038      1.00000
     19       7.5301      1.00000
     20       7.6452      1.00000
     21       7.6696      1.00000
     22       7.8890      1.00000
     23       7.9928      1.00000
     24       8.4934      1.00000
     25       8.5253      1.00000
     26       8.6050      1.00000
     27       8.8078      1.00000
     28       8.9160      1.00000
     29       9.3009      1.00000
     30       9.4333      1.00131
     31      10.0777     -0.00000
     32      13.4350      0.00000
     33      15.5414      0.00000
     34      17.9320      0.00000
     35      19.9291      0.00000

 k-point    17 :       0.3846    0.1538    0.0000
  band No.  band energies     occupation 
      1     -44.6973      1.00000
      2     -44.6784      1.00000
      3     -44.6576      1.00000
      4     -44.6263      1.00000
      5     -44.6091      1.00000
      6     -44.5672      1.00000
      7     -44.5519      1.00000
      8     -44.4903      1.00000
      9     -44.4671      1.00000
     10       3.1393      1.00000
     11       4.7296      1.00000
     12       5.4858      1.00000
     13       5.5803      1.00000
     14       5.9611      1.00000
     15       6.0579      1.00000
     16       6.1138      1.00000
     17       6.6057      1.00000
     18       7.0440      1.00000
     19       7.2046      1.00000
     20       7.4873      1.00000
     21       7.5611      1.00000
     22       7.8692      1.00000
     23       8.0289      1.00000
     24       8.3210      1.00000
     25       8.3919      1.00000
     26       8.6076      1.00000
     27       8.6442      1.00000
     28       8.7005      1.00000
     29       9.2942      1.00000
     30       9.4300      1.00113
     31       9.4872      1.00989
     32      14.2581      0.00000
     33      16.5161      0.00000
     34      16.9417      0.00000
     35      19.8108      0.00000

 k-point    18 :       0.4615    0.1538    0.0000
  band No.  band energies     occupation 
      1     -44.6828      1.00000
      2     -44.6705      1.00000
      3     -44.6669      1.00000
      4     -44.6186      1.00000
      5     -44.6130      1.00000
      6     -44.5690      1.00000
      7     -44.5605      1.00000
      8     -44.4943      1.00000
      9     -44.4710      1.00000
     10       3.7616      1.00000
     11       4.3334      1.00000
     12       5.6346      1.00000
     13       5.7339      1.00000
     14       6.1666      1.00000
     15       6.3129      1.00000
     16       6.3913      1.00000
     17       6.4264      1.00000
     18       6.6467      1.00000
     19       6.7965      1.00000
     20       7.3903      1.00000
     21       7.4050      1.00000
     22       8.1047      1.00000
     23       8.1753      1.00000
     24       8.2279      1.00000
     25       8.2451      1.00000
     26       8.3691      1.00000
     27       8.4031      1.00000
     28       8.8705      1.00000
     29       9.1161      1.00000
     30       9.2916      1.00000
     31       9.4288      1.00107
     32      15.1107      0.00000
     33      16.0015      0.00000
     34      17.5626      0.00000
     35      18.6651      0.00000

 k-point    19 :       0.2308    0.2308    0.0000
  band No.  band energies     occupation 
      1     -44.7191      1.00000
      2     -44.6918      1.00000
      3     -44.6622      1.00000
      4     -44.6293      1.00000
      5     -44.6023      1.00000
      6     -44.5665      1.00000
      7     -44.5330      1.00000
      8     -44.4835      1.00000
      9     -44.4544      1.00000
     10       2.4240      1.00000
     11       5.0834      1.00000
     12       5.1368      1.00000
     13       5.2848      1.00000
     14       5.7426      1.00000
     15       5.7699      1.00000
     16       5.7722      1.00000
     17       6.9011      1.00000
     18       7.4858      1.00000
     19       7.5818      1.00000
     20       7.7220      1.00000
     21       7.7463      1.00000
     22       7.8266      1.00000
     23       8.0175      1.00000
     24       8.5106      1.00000
     25       8.5527      1.00000
     26       8.7592      1.00000
     27       8.7761      1.00000
     28       9.1493      1.00000
     29       9.1498      1.00000
     30       9.3157      1.00000
     31      11.5504     -0.00000
     32      11.6546     -0.00000
     33      15.3289      0.00000
     34      17.7761      0.00000
     35      19.9060      0.00000

 k-point    20 :       0.3077    0.2308    0.0000
  band No.  band energies     occupation 
      1     -44.7143      1.00000
      2     -44.6796      1.00000
      3     -44.6513      1.00000
      4     -44.6379      1.00000
      5     -44.6053      1.00000
      6     -44.5574      1.00000
      7     -44.5510      1.00000
      8     -44.4928      1.00000
      9     -44.4552      1.00000
     10       2.8912      1.00000
     11       5.1229      1.00000
     12       5.3662      1.00000
     13       5.4886      1.00000
     14       5.8888      1.00000
     15       5.9167      1.00000
     16       5.9470      1.00000
     17       6.7790      1.00000
     18       7.2627      1.00000
     19       7.4358      1.00000
     20       7.4648      1.00000
     21       7.4930      1.00000
     22       7.7096      1.00000
     23       7.9569      1.00000
     24       8.3955      1.00000
     25       8.5640      1.00000
     26       8.6389      1.00000
     27       8.7054      1.00000
     28       8.9117      1.00000
     29       9.1330      1.00000
     30       9.2538      1.00000
     31      10.6903     -0.00000
     32      12.3210      0.00000
     33      16.1464      0.00000
     34      16.6556      0.00000
     35      20.0550      0.00000

 k-point    21 :       0.3846    0.2308    0.0000
  band No.  band energies     occupation 
      1     -44.7055      1.00000
      2     -44.6675      1.00000
      3     -44.6600      1.00000
      4     -44.6291      1.00000
      5     -44.6094      1.00000
      6     -44.5701      1.00000
      7     -44.5465      1.00000
      8     -44.5009      1.00000
      9     -44.4580      1.00000
     10       3.4481      1.00000
     11       4.9756      1.00000
     12       5.6183      1.00000
     13       5.7163      1.00000
     14       6.0564      1.00000
     15       6.0676      1.00000
     16       6.1798      1.00000
     17       6.6177      1.00000
     18       6.8445      1.00000
     19       7.1347      1.00000
     20       7.2151      1.00000
     21       7.3765      1.00000
     22       7.8916      1.00000
     23       7.9769      1.00000
     24       8.2470      1.00000
     25       8.3642      1.00000
     26       8.4877      1.00000
     27       8.6432      1.00000
     28       8.9004      1.00000
     29       9.1182      1.00000
     30       9.2289      1.00000
     31       9.9963     -0.00004
     32      13.0665      0.00000
     33      15.6285      0.00000
     34      17.0735      0.00000
     35      20.2912      0.00000

 k-point    22 :       0.4615    0.2308    0.0000
  band No.  band energies     occupation 
      1     -44.6950      1.00000
      2     -44.6727      1.00000
      3     -44.6591      1.00000
      4     -44.6189      1.00000
      5     -44.6131      1.00000
      6     -44.5823      1.00000
      7     -44.5409      1.00000
      8     -44.5058      1.00000
      9     -44.4606      1.00000
     10       4.0447      1.00000
     11       4.5943      1.00000
     12       5.8011      1.00000
     13       5.8927      1.00000
     14       6.2246      1.00000
     15       6.2395      1.00000
     16       6.4330      1.00000
     17       6.4613      1.00000
     18       6.4938      1.00000
     19       6.7861      1.00000
     20       7.1595      1.00000
     21       7.2459      1.00000
     22       8.0933      1.00000
     23       8.1159      1.00000
     24       8.1736      1.00000
     25       8.2083      1.00000
     26       8.2920      1.00000
     27       8.3726      1.00000
     28       9.1103      1.00000
     29       9.1640      1.00000
     30       9.2200      1.00000
     31       9.5091      1.01796
     32      13.8532      0.00000
     33      14.7000      0.00000
     34      18.0838      0.00000
     35      19.1606      0.00000

 k-point    23 :       0.3077    0.3077    0.0000
  band No.  band energies     occupation 
      1     -44.7151      1.00000
      2     -44.6670      1.00000
      3     -44.6529      1.00000
      4     -44.6377      1.00000
      5     -44.6072      1.00000
      6     -44.5693      1.00000
      7     -44.5425      1.00000
      8     -44.5038      1.00000
      9     -44.4519      1.00000
     10       3.3323      1.00000
     11       5.3963      1.00000
     12       5.4223      1.00000
     13       5.6653      1.00000
     14       6.0146      1.00000
     15       6.0341      1.00000
     16       6.0781      1.00000
     17       6.7163      1.00000
     18       7.0219      1.00000
     19       7.0400      1.00000
     20       7.2811      1.00000
     21       7.4011      1.00000
     22       7.8001      1.00000
     23       7.8842      1.00000
     24       8.2654      1.00000
     25       8.4570      1.00000
     26       8.4847      1.00000
     27       8.8938      1.00000
     28       8.9103      1.00000
     29       8.9216      1.00000
     30       9.1114      1.00000
     31      11.2642     -0.00000
     32      11.3984     -0.00000
     33      15.4865      0.00000
     34      16.9078      0.00000
     35      20.2734      0.00000

 k-point    24 :       0.3846    0.3077    0.0000
  band No.  band energies     occupation 
      1     -44.7130      1.00000
      2     -44.6639      1.00000
      3     -44.6540      1.00000
      4     -44.6276      1.00000
      5     -44.6100      1.00000
      6     -44.5845      1.00000
      7     -44.5310      1.00000
      8     -44.5140      1.00000
      9     -44.4512      1.00000
     10       3.8541      1.00000
     11       5.2817      1.00000
     12       5.7060      1.00000
     13       5.8724      1.00000
     14       6.0996      1.00000
     15       6.1826      1.00000
     16       6.2670      1.00000
     17       6.6137      1.00000
     18       6.6745      1.00000
     19       6.9140      1.00000
     20       7.0287      1.00000
     21       7.2900      1.00000
     22       7.8696      1.00000
     23       7.9484      1.00000
     24       8.1386      1.00000
     25       8.2714      1.00000
     26       8.3205      1.00000
     27       8.6464      1.00000
     28       8.9057      1.00000
     29       9.0269      1.00000
     30       9.1869      1.00000
     31      10.5401     -0.00000
     32      12.0080      0.00000
     33      14.4486      0.00000
     34      17.7875      0.00000
     35      20.5826      0.00000

 k-point    25 :       0.4615    0.3077    0.0000
  band No.  band energies     occupation 
      1     -44.7102      1.00000
      2     -44.6716      1.00000
      3     -44.6446      1.00000
      4     -44.6188      1.00000
      5     -44.6132      1.00000
      6     -44.5959      1.00000
      7     -44.5242      1.00000
      8     -44.5203      1.00000
      9     -44.4516      1.00000
     10       4.4091      1.00000
     11       4.9220      1.00000
     12       5.9541      1.00000
     13       6.0833      1.00000
     14       6.1222      1.00000
     15       6.3321      1.00000
     16       6.3712      1.00000
     17       6.4781      1.00000
     18       6.5025      1.00000
     19       6.7626      1.00000
     20       6.9660      1.00000
     21       7.1236      1.00000
     22       7.9567      1.00000
     23       8.0775      1.00000
     24       8.1074      1.00000
     25       8.1460      1.00000
     26       8.1479      1.00000
     27       8.3870      1.00000
     28       8.9038      1.00000
     29       8.9877      1.00000
     30       9.5241      1.02473
     31       9.9562     -0.00034
     32      12.7326      0.00000
     33      13.5374      0.00000
     34      18.7592      0.00000
     35      19.8080      0.00000

 k-point    26 :       0.3846    0.3846    0.0000
  band No.  band energies     occupation 
      1     -44.7186      1.00000
      2     -44.6673      1.00000
      3     -44.6400      1.00000
      4     -44.6236      1.00000
      5     -44.6112      1.00000
      6     -44.5973      1.00000
      7     -44.5269      1.00000
      8     -44.5190      1.00000
      9     -44.4470      1.00000
     10       4.3262      1.00000
     11       5.5999      1.00000
     12       5.6006      1.00000
     13       5.9923      1.00000
     14       6.1785      1.00000
     15       6.3205      1.00000
     16       6.3807      1.00000
     17       6.5821      1.00000
     18       6.6358      1.00000
     19       6.6878      1.00000
     20       6.8870      1.00000
     21       7.1865      1.00000
     22       7.7938      1.00000
     23       8.0206      1.00000
     24       8.0546      1.00000
     25       8.1135      1.00000
     26       8.1500      1.00000
     27       8.6398      1.00000
     28       8.6842      1.00000
     29       8.8733      1.00000
     30       9.5291      1.02703
     31      11.0559     -0.00000
     32      11.2107     -0.00000
     33      13.4208      0.00000
     34      18.6242      0.00000
     35      20.9528      0.00000

 k-point    27 :       0.4615    0.3846    0.0000
  band No.  band energies     occupation 
      1     -44.7216      1.00000
      2     -44.6691      1.00000
      3     -44.6294      1.00000
      4     -44.6185      1.00000
      5     -44.6132      1.00000
      6     -44.6071      1.00000
      7     -44.5356      1.00000
      8     -44.5123      1.00000
      9     -44.4452      1.00000
     10       4.8182      1.00000
     11       5.2721      1.00000
     12       5.8579      1.00000
     13       6.0073      1.00000
     14       6.3038      1.00000
     15       6.4322      1.00000
     16       6.4619      1.00000
     17       6.5171      1.00000
     18       6.5420      1.00000
     19       6.7197      1.00000
     20       6.8160      1.00000
     21       7.0195      1.00000
     22       7.8252      1.00000
     23       7.9482      1.00000
     24       7.9577      1.00000
     25       7.9999      1.00000
     26       8.2147      1.00000
     27       8.4217      1.00000
     28       8.6933      1.00000
     29       8.7743      1.00000
     30       9.9387     -0.00080
     31      10.4531     -0.00000
     32      11.7931      0.00000
     33      12.5422      0.00000
     34      19.5585      0.00000
     35      20.5791      0.00000

 k-point    28 :       0.4615    0.4615    0.0000
  band No.  band energies     occupation 
      1     -44.7276      1.00000
      2     -44.6671      1.00000
      3     -44.6178      1.00000
      4     -44.6176      1.00000
      5     -44.6144      1.00000
      6     -44.6135      1.00000
      7     -44.5470      1.00000
      8     -44.5061      1.00000
      9     -44.4419      1.00000
     10       5.2233      1.00000
     11       5.5777      1.00000
     12       5.5945      1.00000
     13       5.8418      1.00000
     14       6.5076      1.00000
     15       6.5121      1.00000
     16       6.5432      1.00000
     17       6.5842      1.00000
     18       6.6446      1.00000
     19       6.6553      1.00000
     20       6.7155      1.00000
     21       6.8856      1.00000
     22       7.7748      1.00000
     23       7.8332      1.00000
     24       7.8566      1.00000
     25       7.8651      1.00000
     26       8.3271      1.00000
     27       8.4666      1.00000
     28       8.5172      1.00000
     29       8.6115      1.00000
     30      10.4246     -0.00000
     31      10.9481     -0.00000
     32      11.1133     -0.00000
     33      11.7175      0.00000
     34      20.4572      0.00000
     35      21.4350      0.00000

 k-point    29 :       0.0769    0.0769    0.0769
  band No.  band energies     occupation 
      1     -44.7293      1.00000
      2     -44.7166      1.00000
      3     -44.7166      1.00000
      4     -44.5977      1.00000
      5     -44.5977      1.00000
      6     -44.5882      1.00000
      7     -44.4733      1.00000
      8     -44.4570      1.00000
      9     -44.4570      1.00000
     10       1.3414      1.00000
     11       4.6461      1.00000
     12       4.7577      1.00000
     13       4.7577      1.00000
     14       5.3722      1.00000
     15       5.3775      1.00000
     16       5.3775      1.00000
     17       7.2064      1.00000
     18       7.3300      1.00000
     19       7.3300      1.00000
     20       8.2721      1.00000
     21       8.2721      1.00000
     22       9.0034      1.00000
     23       9.0034      1.00000
     24       9.0269      1.00000
     25       9.0572      1.00000
     26       9.1431      1.00000
     27       9.1431      1.00000
     28       9.4544      1.00315
     29       9.4544      1.00315
     30       9.5615      1.03526
     31      12.3858      0.00000
     32      12.4141      0.00000
     33      12.4141      0.00000
     34      19.7923      0.00000
     35      19.8726      0.00000

 k-point    30 :       0.1538    0.0769    0.0769
  band No.  band energies     occupation 
      1     -44.7275      1.00000
      2     -44.7107      1.00000
      3     -44.7036      1.00000
      4     -44.6032      1.00000
      5     -44.5990      1.00000
      6     -44.5850      1.00000
      7     -44.4875      1.00000
      8     -44.4611      1.00000
      9     -44.4579      1.00000
     10       1.5661      1.00000
     11       4.7336      1.00000
     12       4.8363      1.00000
     13       4.8809      1.00000
     14       5.4481      1.00000
     15       5.4638      1.00000
     16       5.4662      1.00000
     17       7.1293      1.00000
     18       7.3862      1.00000
     19       7.3918      1.00000
     20       8.1941      1.00000
     21       8.3142      1.00000
     22       8.6721      1.00000
     23       8.6906      1.00000
     24       8.9073      1.00000
     25       8.9310      1.00000
     26       8.9442      1.00000
     27       8.9453      1.00000
     28       9.3897      1.00015
     29       9.4094      1.00043
     30       9.5404      1.03174
     31      11.5155     -0.00000
     32      12.9841      0.00000
     33      12.9967      0.00000
     34      19.8703      0.00000
     35      19.9096      0.00000

 k-point    31 :       0.2308    0.0769    0.0769
  band No.  band energies     occupation 
      1     -44.7206      1.00000
      2     -44.7016      1.00000
      3     -44.6875      1.00000
      4     -44.6098      1.00000
      5     -44.6010      1.00000
      6     -44.5823      1.00000
      7     -44.5056      1.00000
      8     -44.4672      1.00000
      9     -44.4627      1.00000
     10       1.9318      1.00000
     11       4.8031      1.00000
     12       4.9959      1.00000
     13       5.0700      1.00000
     14       5.5685      1.00000
     15       5.6094      1.00000
     16       5.6135      1.00000
     17       6.9920      1.00000
     18       7.4866      1.00000
     19       7.4936      1.00000
     20       8.0834      1.00000
     21       8.1741      1.00000
     22       8.1799      1.00000
     23       8.3824      1.00000
     24       8.6357      1.00000
     25       8.7469      1.00000
     26       8.7683      1.00000
     27       8.8255      1.00000
     28       9.2662      1.00000
     29       9.3927      1.00018
     30       9.5347      1.02949
     31      10.5287     -0.00000
     32      13.7511      0.00000
     33      13.7592      0.00000
     34      19.9078      0.00000
     35      19.9141      0.00000

 k-point    32 :       0.3077    0.0769    0.0769
  band No.  band energies     occupation 
      1     -44.7097      1.00000
      2     -44.6902      1.00000
      3     -44.6710      1.00000
      4     -44.6175      1.00000
      5     -44.6032      1.00000
      6     -44.5802      1.00000
      7     -44.5259      1.00000
      8     -44.4739      1.00000
      9     -44.4699      1.00000
     10       2.4229      1.00000
     11       4.7940      1.00000
     12       5.2104      1.00000
     13       5.2981      1.00000
     14       5.7293      1.00000
     15       5.8105      1.00000
     16       5.8173      1.00000
     17       6.8105      1.00000
     18       7.5853      1.00000
     19       7.6329      1.00000
     20       7.6671      1.00000
     21       7.6687      1.00000
     22       7.9987      1.00000
     23       8.2192      1.00000
     24       8.4667      1.00000
     25       8.5488      1.00000
     26       8.5710      1.00000
     27       8.6618      1.00000
     28       9.1257      1.00000
     29       9.3849      1.00012
     30       9.5320      1.02834
     31       9.6891      0.42689
     32      14.6102      0.00000
     33      14.6147      0.00000
     34      19.4402      0.00000
     35      19.4594      0.00000

 k-point    33 :       0.3846    0.0769    0.0769
  band No.  band energies     occupation 
      1     -44.6967      1.00000
      2     -44.6784      1.00000
      3     -44.6587      1.00000
      4     -44.6258      1.00000
      5     -44.6030      1.00000
      6     -44.5787      1.00000
      7     -44.5460      1.00000
      8     -44.4797      1.00000
      9     -44.4772      1.00000
     10       3.0106      1.00000
     11       4.6229      1.00000
     12       5.4229      1.00000
     13       5.5201      1.00000
     14       5.9229      1.00000
     15       6.0618      1.00000
     16       6.0739      1.00000
     17       6.5993      1.00000
     18       7.1900      1.00000
     19       7.1950      1.00000
     20       7.5765      1.00000
     21       7.7985      1.00000
     22       7.8071      1.00000
     23       8.0737      1.00000
     24       8.3557      1.00000
     25       8.3693      1.00000
     26       8.4437      1.00000
     27       8.5947      1.00000
     28       8.9850      1.00000
     29       9.0802      1.00000
     30       9.3814      1.00010
     31       9.5306      1.02770
     32      15.5169      0.00000
     33      15.5179      0.00000
     34      18.5072      0.00000
     35      18.5130      0.00000

 k-point    34 :       0.4615    0.0769    0.0769
  band No.  band energies     occupation 
      1     -44.6863      1.00000
      2     -44.6695      1.00000
      3     -44.6550      1.00000
      4     -44.6326      1.00000
      5     -44.5977      1.00000
      6     -44.5779      1.00000
      7     -44.5618      1.00000
      8     -44.4831      1.00000
      9     -44.4817      1.00000
     10       3.6416      1.00000
     11       4.2209      1.00000
     12       5.5625      1.00000
     13       5.6659      1.00000
     14       6.1375      1.00000
     15       6.3464      1.00000
     16       6.3762      1.00000
     17       6.3800      1.00000
     18       6.7662      1.00000
     19       6.7918      1.00000
     20       7.5112      1.00000
     21       7.5518      1.00000
     22       8.0078      1.00000
     23       8.2223      1.00000
     24       8.2260      1.00000
     25       8.2479      1.00000
     26       8.3134      1.00000
     27       8.6440      1.00000
     28       8.7062      1.00000
     29       8.8523      1.00000
     30       9.3797      1.00009
     31       9.5300      1.02742
     32      16.4047      0.00000
     33      16.4113      0.00000
     34      17.5744      0.00000
     35      17.5901      0.00000

 k-point    35 :       0.1538    0.1538    0.0769
  band No.  band energies     occupation 
      1     -44.7287      1.00000
      2     -44.7026      1.00000
      3     -44.6919      1.00000
      4     -44.6090      1.00000
      5     -44.6009      1.00000
      6     -44.5796      1.00000
      7     -44.5039      1.00000
      8     -44.4643      1.00000
      9     -44.4565      1.00000
     10       1.7862      1.00000
     11       4.8394      1.00000
     12       4.9230      1.00000
     13       4.9777      1.00000
     14       5.5262      1.00000
     15       5.5412      1.00000
     16       5.5475      1.00000
     17       7.0805      1.00000
     18       7.4208      1.00000
     19       7.4280      1.00000
     20       8.1816      1.00000
     21       8.3152      1.00000
     22       8.4213      1.00000
     23       8.4612      1.00000
     24       8.5147      1.00000
     25       8.7889      1.00000
     26       8.8628      1.00000
     27       8.8638      1.00000
     28       9.3536      1.00002
     29       9.3728      1.00006
     30       9.4784      1.00748
     31      12.0436      0.00000
     32      12.1014      0.00000
     33      13.4817      0.00000
     34      19.8204      0.00000
     35      20.7907      0.00000

 k-point    36 :       0.2308    0.1538    0.0769
  band No.  band energies     occupation 
      1     -44.7249      1.00000
      2     -44.6937      1.00000
      3     -44.6767      1.00000
      4     -44.6170      1.00000
      5     -44.6019      1.00000
      6     -44.5742      1.00000
      7     -44.5233      1.00000
      8     -44.4706      1.00000
      9     -44.4579      1.00000
     10       2.1441      1.00000
     11       4.9320      1.00000
     12       5.0742      1.00000
     13       5.1542      1.00000
     14       5.6441      1.00000
     15       5.6758      1.00000
     16       5.6827      1.00000
     17       6.9710      1.00000
     18       7.4835      1.00000
     19       7.5040      1.00000
     20       7.9778      1.00000
     21       8.0312      1.00000
     22       8.1072      1.00000
     23       8.1880      1.00000
     24       8.3962      1.00000
     25       8.6442      1.00000
     26       8.7246      1.00000
     27       8.7387      1.00000
     28       9.2682      1.00000
     29       9.3235      1.00000
     30       9.4408      1.00181
     31      11.0614     -0.00000
     32      12.7692      0.00000
     33      14.1620      0.00000
     34      19.1600      0.00000
     35      20.3888      0.00000

 k-point    37 :       0.3077    0.1538    0.0769
  band No.  band energies     occupation 
      1     -44.7162      1.00000
      2     -44.6831      1.00000
      3     -44.6637      1.00000
      4     -44.6256      1.00000
      5     -44.6022      1.00000
      6     -44.5692      1.00000
      7     -44.5428      1.00000
      8     -44.4779      1.00000
      9     -44.4625      1.00000
     10       2.6241      1.00000
     11       4.9329      1.00000
     12       5.2926      1.00000
     13       5.3779      1.00000
     14       5.7985      1.00000
     15       5.8539      1.00000
     16       5.8708      1.00000
     17       6.8114      1.00000
     18       7.4941      1.00000
     19       7.5207      1.00000
     20       7.5943      1.00000
     21       7.6240      1.00000
     22       7.8295      1.00000
     23       8.0657      1.00000
     24       8.4706      1.00000
     25       8.4998      1.00000
     26       8.5399      1.00000
     27       8.5814      1.00000
     28       9.1311      1.00000
     29       9.2964      1.00000
     30       9.4216      1.00077
     31      10.1772     -0.00000
     32      13.5291      0.00000
     33      14.9431      0.00000
     34      18.1479      0.00000
     35      19.8617      0.00000

 k-point    38 :       0.3846    0.1538    0.0769
  band No.  band energies     occupation 
      1     -44.7039      1.00000
      2     -44.6727      1.00000
      3     -44.6586      1.00000
      4     -44.6332      1.00000
      5     -44.5994      1.00000
      6     -44.5663      1.00000
      7     -44.5587      1.00000
      8     -44.4846      1.00000
      9     -44.4682      1.00000
     10       3.1974      1.00000
     11       4.7698      1.00000
     12       5.5162      1.00000
     13       5.6075      1.00000
     14       5.9836      1.00000
     15       6.0556      1.00000
     16       6.1018      1.00000
     17       6.6190      1.00000
     18       7.0610      1.00000
     19       7.1757      1.00000
     20       7.4686      1.00000
     21       7.5128      1.00000
     22       7.7692      1.00000
     23       8.1636      1.00000
     24       8.3047      1.00000
     25       8.3402      1.00000
     26       8.3595      1.00000
     27       8.6746      1.00000
     28       8.9518      1.00000
     29       9.2814      1.00000
     30       9.4109      1.00046
     31       9.5139      1.02006
     32      14.3236      0.00000
     33      15.7222      0.00000
     34      17.2385      0.00000
     35      18.8495      0.00000

 k-point    39 :       0.4615    0.1538    0.0769
  band No.  band energies     occupation 
      1     -44.6912      1.00000
      2     -44.6707      1.00000
      3     -44.6571      1.00000
      4     -44.6391      1.00000
      5     -44.5924      1.00000
      6     -44.5751      1.00000
      7     -44.5603      1.00000
      8     -44.4888      1.00000
      9     -44.4723      1.00000
     10       3.8123      1.00000
     11       4.3772      1.00000
     12       5.6719      1.00000
     13       5.7687      1.00000
     14       6.1874      1.00000
     15       6.2581      1.00000
     16       6.3363      1.00000
     17       6.4116      1.00000
     18       6.7303      1.00000
     19       6.8233      1.00000
     20       7.3574      1.00000
     21       7.3793      1.00000
     22       7.9411      1.00000
     23       8.1352      1.00000
     24       8.1962      1.00000
     25       8.2217      1.00000
     26       8.4031      1.00000
     27       8.6943      1.00000
     28       8.8544      1.00000
     29       9.0959      1.00000
     30       9.2748      1.00000
     31       9.4064      1.00037
     32      15.1331      0.00000
     33      15.8648      0.00000
     34      17.0791      0.00000
     35      17.8876      0.00000

 k-point    40 :       0.2308    0.2308    0.0769
  band No.  band energies     occupation 
      1     -44.7246      1.00000
      2     -44.6857      1.00000
      3     -44.6638      1.00000
      4     -44.6259      1.00000
      5     -44.6016      1.00000
      6     -44.5650      1.00000
      7     -44.5433      1.00000
      8     -44.4775      1.00000
      9     -44.4552      1.00000
     10       2.4886      1.00000
     11       5.1126      1.00000
     12       5.1686      1.00000
     13       5.3033      1.00000
     14       5.7611      1.00000
     15       5.7925      1.00000
     16       5.7935      1.00000
     17       6.9083      1.00000
     18       7.4819      1.00000
     19       7.5503      1.00000
     20       7.6984      1.00000
     21       7.7208      1.00000
     22       7.7813      1.00000
     23       8.0782      1.00000
     24       8.4877      1.00000
     25       8.5016      1.00000
     26       8.6210      1.00000
     27       8.6387      1.00000
     28       9.2201      1.00000
     29       9.2267      1.00000
     30       9.3424      1.00001
     31      11.6527     -0.00000
     32      11.7482      0.00000
     33      14.7412      0.00000
     34      17.9998      0.00000
     35      20.4760      0.00000

 k-point    41 :       0.3077    0.2308    0.0769
  band No.  band energies     occupation 
      1     -44.7195      1.00000
      2     -44.6781      1.00000
      3     -44.6543      1.00000
      4     -44.6334      1.00000
      5     -44.6004      1.00000
      6     -44.5628      1.00000
      7     -44.5550      1.00000
      8     -44.4859      1.00000
      9     -44.4559      1.00000
     10       2.9490      1.00000
     11       5.1467      1.00000
     12       5.3865      1.00000
     13       5.5041      1.00000
     14       5.9059      1.00000
     15       5.9329      1.00000
     16       5.9620      1.00000
     17       6.7950      1.00000
     18       7.2690      1.00000
     19       7.4212      1.00000
     20       7.4597      1.00000
     21       7.4648      1.00000
     22       7.6328      1.00000
     23       8.0613      1.00000
     24       8.3483      1.00000
     25       8.4571      1.00000
     26       8.4714      1.00000
     27       8.6701      1.00000
     28       9.0759      1.00000
     29       9.1748      1.00000
     30       9.2796      1.00000
     31      10.7512     -0.00000
     32      12.3889      0.00000
     33      15.3567      0.00000
     34      16.9894      0.00000
     35      20.3389      0.00000

 k-point    42 :       0.3846    0.2308    0.0769
  band No.  band energies     occupation 
      1     -44.7101      1.00000
      2     -44.6758      1.00000
      3     -44.6510      1.00000
      4     -44.6359      1.00000
      5     -44.5979      1.00000
      6     -44.5779      1.00000
      7     -44.5464      1.00000
      8     -44.4937      1.00000
      9     -44.4587      1.00000
     10       3.4965      1.00000
     11       4.9953      1.00000
     12       5.6350      1.00000
     13       5.7318      1.00000
     14       6.0493      1.00000
     15       6.0897      1.00000
     16       6.1557      1.00000
     17       6.6423      1.00000
     18       6.8970      1.00000
     19       7.1374      1.00000
     20       7.2091      1.00000
     21       7.3707      1.00000
     22       7.7412      1.00000
     23       8.1516      1.00000
     24       8.2118      1.00000
     25       8.2618      1.00000
     26       8.3022      1.00000
     27       8.8646      1.00000
     28       8.8907      1.00000
     29       9.1410      1.00000
     30       9.2457      1.00000
     31      10.0120     -0.00001
     32      13.1102      0.00000
     33      15.3987      0.00000
     34      16.7464      0.00000
     35      19.3116      0.00000

 k-point    43 :       0.4615    0.2308    0.0769
  band No.  band energies     occupation 
      1     -44.6977      1.00000
      2     -44.6841      1.00000
      3     -44.6454      1.00000
      4     -44.6389      1.00000
      5     -44.5944      1.00000
      6     -44.5874      1.00000
      7     -44.5408      1.00000
      8     -44.4987      1.00000
      9     -44.4613      1.00000
     10       4.0814      1.00000
     11       4.6193      1.00000
     12       5.8323      1.00000
     13       5.9231      1.00000
     14       6.1371      1.00000
     15       6.2531      1.00000
     16       6.2822      1.00000
     17       6.4672      1.00000
     18       6.7024      1.00000
     19       6.8552      1.00000
     20       7.1560      1.00000
     21       7.2412      1.00000
     22       7.8831      1.00000
     23       8.0597      1.00000
     24       8.1256      1.00000
     25       8.1651      1.00000
     26       8.3725      1.00000
     27       8.6304      1.00000
     28       9.1244      1.00000
     29       9.1403      1.00000
     30       9.2307      1.00000
     31       9.4933      1.01184
     32      13.8689      0.00000
     33      14.6647      0.00000
     34      17.4442      0.00000
     35      18.3419      0.00000

 k-point    44 :       0.3077    0.3077    0.0769
  band No.  band energies     occupation 
      1     -44.7191      1.00000
      2     -44.6765      1.00000
      3     -44.6470      1.00000
      4     -44.6370      1.00000
      5     -44.5978      1.00000
      6     -44.5799      1.00000
      7     -44.5422      1.00000
      8     -44.4956      1.00000
      9     -44.4524      1.00000
     10       3.3800      1.00000
     11       5.3934      1.00000
     12       5.4263      1.00000
     13       5.6689      1.00000
     14       6.0125      1.00000
     15       6.0659      1.00000
     16       6.0975      1.00000
     17       6.7447      1.00000
     18       7.0455      1.00000
     19       7.0623      1.00000
     20       7.2815      1.00000
     21       7.4000      1.00000
     22       7.6559      1.00000
     23       8.0512      1.00000
     24       8.2088      1.00000
     25       8.3268      1.00000
     26       8.3436      1.00000
     27       8.8874      1.00000
     28       9.0101      1.00000
     29       9.0224      1.00000
     30       9.1533      1.00000
     31      11.3056     -0.00000
     32      11.4327     -0.00000
     33      15.2271      0.00000
     34      16.6295      0.00000
     35      20.8766      0.00000

 k-point    45 :       0.3846    0.3077    0.0769
  band No.  band energies     occupation 
      1     -44.7154      1.00000
      2     -44.6801      1.00000
      3     -44.6443      1.00000
      4     -44.6340      1.00000
      5     -44.5976      1.00000
      6     -44.5906      1.00000
      7     -44.5309      1.00000
      8     -44.5051      1.00000
      9     -44.4516      1.00000
     10       3.8874      1.00000
     11       5.2672      1.00000
     12       5.6788      1.00000
     13       5.8553      1.00000
     14       6.0900      1.00000
     15       6.2223      1.00000
     16       6.2568      1.00000
     17       6.6561      1.00000
     18       6.7655      1.00000
     19       6.9409      1.00000
     20       7.0720      1.00000
     21       7.2916      1.00000
     22       7.7033      1.00000
     23       8.0751      1.00000
     24       8.1363      1.00000
     25       8.1594      1.00000
     26       8.1892      1.00000
     27       8.8074      1.00000
     28       8.9729      1.00000
     29       9.0711      1.00000
     30       9.1621      1.00000
     31      10.5460     -0.00000
     32      12.0282      0.00000
     33      14.3811      0.00000
     34      17.2182      0.00000
     35      19.8983      0.00000

 k-point    46 :       0.4615    0.3077    0.0769
  band No.  band energies     occupation 
      1     -44.7106      1.00000
      2     -44.6858      1.00000
      3     -44.6424      1.00000
      4     -44.6310      1.00000
      5     -44.6041      1.00000
      6     -44.5893      1.00000
      7     -44.5242      1.00000
      8     -44.5113      1.00000
      9     -44.4520      1.00000
     10       4.4235      1.00000
     11       4.9163      1.00000
     12       5.9058      1.00000
     13       6.0210      1.00000
     14       6.1093      1.00000
     15       6.2560      1.00000
     16       6.3911      1.00000
     17       6.5363      1.00000
     18       6.7013      1.00000
     19       6.8681      1.00000
     20       6.9832      1.00000
     21       7.1300      1.00000
     22       7.8069      1.00000
     23       7.9645      1.00000
     24       8.0157      1.00000
     25       8.0596      1.00000
     26       8.3277      1.00000
     27       8.5662      1.00000
     28       8.9505      1.00000
     29       9.0314      1.00000
     30       9.4985      1.01367
     31       9.9388     -0.00079
     32      12.7361      0.00000
     33      13.5180      0.00000
     34      18.0257      0.00000
     35      18.9297      0.00000

 k-point    47 :       0.3846    0.3846    0.0769
  band No.  band energies     occupation 
      1     -44.7194      1.00000
      2     -44.6823      1.00000
      3     -44.6425      1.00000
      4     -44.6315      1.00000
      5     -44.6003      1.00000
      6     -44.5923      1.00000
      7     -44.5189      1.00000
      8     -44.5168      1.00000
      9     -44.4472      1.00000
     10       4.3376      1.00000
     11       5.5287      1.00000
     12       5.5455      1.00000
     13       5.9094      1.00000
     14       6.2026      1.00000
     15       6.3821      1.00000
     16       6.4061      1.00000
     17       6.6471      1.00000
     18       6.7246      1.00000
     19       6.7532      1.00000
     20       6.9773      1.00000
     21       7.1940      1.00000
     22       7.6740      1.00000
     23       7.9550      1.00000
     24       8.0116      1.00000
     25       8.0365      1.00000
     26       8.1947      1.00000
     27       8.7527      1.00000
     28       8.7827      1.00000
     29       8.9284      1.00000
     30       9.5015      1.01482
     31      11.0552     -0.00000
     32      11.2051     -0.00000
     33      13.3885      0.00000
     34      17.9213      0.00000
     35      20.5662      0.00000

 k-point    48 :       0.4615    0.3846    0.0769
  band No.  band energies     occupation 
      1     -44.7216      1.00000
      2     -44.6827      1.00000
      3     -44.6422      1.00000
      4     -44.6329      1.00000
      5     -44.6009      1.00000
      6     -44.5893      1.00000
      7     -44.5251      1.00000
      8     -44.5123      1.00000
      9     -44.4453      1.00000
     10       4.8007      1.00000
     11       5.2237      1.00000
     12       5.7447      1.00000
     13       5.8861      1.00000
     14       6.3325      1.00000
     15       6.4463      1.00000
     16       6.5276      1.00000
     17       6.6066      1.00000
     18       6.7139      1.00000
     19       6.8387      1.00000
     20       6.8625      1.00000
     21       7.0329      1.00000
     22       7.7209      1.00000
     23       7.8498      1.00000
     24       7.8848      1.00000
     25       7.9157      1.00000
     26       8.3373      1.00000
     27       8.5416      1.00000
     28       8.7653      1.00000
     29       8.8375      1.00000
     30       9.9110     -0.00265
     31      10.4328     -0.00000
     32      11.7819      0.00000
     33      12.5231      0.00000
     34      18.7296      0.00000
     35      19.6286      0.00000

 k-point    49 :       0.4615    0.4615    0.0769
  band No.  band energies     occupation 
      1     -44.7275      1.00000
      2     -44.6791      1.00000
      3     -44.6421      1.00000
      4     -44.6398      1.00000
      5     -44.5917      1.00000
      6     -44.5890      1.00000
      7     -44.5358      1.00000
      8     -44.5061      1.00000
      9     -44.4419      1.00000
     10       5.1665      1.00000
     11       5.4916      1.00000
     12       5.4935      1.00000
     13       5.7206      1.00000
     14       6.5365      1.00000
     15       6.6387      1.00000
     16       6.6435      1.00000
     17       6.6596      1.00000
     18       6.7435      1.00000
     19       6.7523      1.00000
     20       6.8067      1.00000
     21       6.9055      1.00000
     22       7.6906      1.00000
     23       7.7564      1.00000
     24       7.7803      1.00000
     25       7.7845      1.00000
     26       8.4230      1.00000
     27       8.5573      1.00000
     28       8.5977      1.00000
     29       8.6836      1.00000
     30      10.3971     -0.00000
     31      10.9276     -0.00000
     32      11.0888     -0.00000
     33      11.6956      0.00000
     34      19.5265      0.00000
     35      20.3988      0.00000

 k-point    50 :       0.1538    0.1538    0.1538
  band No.  band energies     occupation 
      1     -44.7324      1.00000
      2     -44.6880      1.00000
      3     -44.6880      1.00000
      4     -44.6074      1.00000
      5     -44.6074      1.00000
      6     -44.5741      1.00000
      7     -44.5221      1.00000
      8     -44.4598      1.00000
      9     -44.4598      1.00000
     10       2.0006      1.00000
     11       4.9412      1.00000
     12       5.0394      1.00000
     13       5.0394      1.00000
     14       5.5978      1.00000
     15       5.6210      1.00000
     16       5.6210      1.00000
     17       7.0470      1.00000
     18       7.4430      1.00000
     19       7.4430      1.00000
     20       8.2122      1.00000
     21       8.2532      1.00000
     22       8.2532      1.00000
     23       8.2669      1.00000
     24       8.2669      1.00000
     25       8.6786      1.00000
     26       8.6786      1.00000
     27       8.6918      1.00000
     28       9.3607      1.00003
     29       9.3607      1.00003
     30       9.4638      1.00449
     31      12.4704      0.00000
     32      12.5330      0.00000
     33      12.5330      0.00000
     34      20.6460      0.00000
     35      20.7142      0.00000

 k-point    51 :       0.2308    0.1538    0.1538
  band No.  band energies     occupation 
      1     -44.7310      1.00000
      2     -44.6821      1.00000
      3     -44.6742      1.00000
      4     -44.6150      1.00000
      5     -44.6038      1.00000
      6     -44.5682      1.00000
      7     -44.5431      1.00000
      8     -44.4649      1.00000
      9     -44.4595      1.00000
     10       2.3485      1.00000
     11       5.0428      1.00000
     12       5.1631      1.00000
     13       5.2186      1.00000
     14       5.7117      1.00000
     15       5.7430      1.00000
     16       5.7508      1.00000
     17       6.9627      1.00000
     18       7.4791      1.00000
     19       7.4876      1.00000
     20       7.8557      1.00000
     21       7.8707      1.00000
     22       7.9692      1.00000
     23       8.1907      1.00000
     24       8.3667      1.00000
     25       8.5293      1.00000
     26       8.5373      1.00000
     27       8.5563      1.00000
     28       9.3214      1.00000
     29       9.3235      1.00000
     30       9.4281      1.00104
     31      11.4463     -0.00000
     32      13.0965      0.00000
     33      13.1221      0.00000
     34      19.5683      0.00000
     35      19.6230      0.00000

 k-point    52 :       0.3077    0.1538    0.1538
  band No.  band energies     occupation 
      1     -44.7244      1.00000
      2     -44.6747      1.00000
      3     -44.6662      1.00000
      4     -44.6229      1.00000
      5     -44.5978      1.00000
      6     -44.5627      1.00000
      7     -44.5620      1.00000
      8     -44.4707      1.00000
      9     -44.4632      1.00000
     10       2.8138      1.00000
     11       5.0449      1.00000
     12       5.3670      1.00000
     13       5.4403      1.00000
     14       5.8631      1.00000
     15       5.9009      1.00000
     16       5.9185      1.00000
     17       6.8281      1.00000
     18       7.4586      1.00000
     19       7.4611      1.00000
     20       7.4889      1.00000
     21       7.5613      1.00000
     22       7.6418      1.00000
     23       8.1913      1.00000
     24       8.3338      1.00000
     25       8.3926      1.00000
     26       8.4022      1.00000
     27       8.5279      1.00000
     28       9.2462      1.00000
     29       9.2772      1.00000
     30       9.3882      1.00014
     31      10.4836     -0.00000
     32      13.7771      0.00000
     33      13.7893      0.00000
     34      18.4997      0.00000
     35      18.5502      0.00000

 k-point    53 :       0.3846    0.1538    0.1538
  band No.  band energies     occupation 
      1     -44.7134      1.00000
      2     -44.6672      1.00000
      3     -44.6669      1.00000
      4     -44.6306      1.00000
      5     -44.5929      1.00000
      6     -44.5724      1.00000
      7     -44.5581      1.00000
      8     -44.4760      1.00000
      9     -44.4692      1.00000
     10       3.3676      1.00000
     11       4.8828      1.00000
     12       5.5938      1.00000
     13       5.6761      1.00000
     14       6.0292      1.00000
     15       6.0703      1.00000
     16       6.0891      1.00000
     17       6.6578      1.00000
     18       7.0918      1.00000
     19       7.1139      1.00000
     20       7.3746      1.00000
     21       7.4169      1.00000
     22       7.6659      1.00000
     23       8.1462      1.00000
     24       8.2335      1.00000
     25       8.2518      1.00000
     26       8.3512      1.00000
     27       8.6785      1.00000
     28       9.1336      1.00000
     29       9.2439      1.00000
     30       9.3589      1.00003
     31       9.6977      0.35663
     32      14.4718      0.00000
     33      14.4741      0.00000
     34      17.5557      0.00000
     35      17.6067      0.00000

 k-point    54 :       0.4615    0.1538    0.1538
  band No.  band energies     occupation 
      1     -44.7014      1.00000
      2     -44.6751      1.00000
      3     -44.6609      1.00000
      4     -44.6364      1.00000
      5     -44.5941      1.00000
      6     -44.5715      1.00000
      7     -44.5554      1.00000
      8     -44.4793      1.00000
      9     -44.4740      1.00000
     10       3.9591      1.00000
     11       4.5020      1.00000
     12       5.7764      1.00000
     13       5.8660      1.00000
     14       6.1185      1.00000
     15       6.1957      1.00000
     16       6.2607      1.00000
     17       6.4677      1.00000
     18       6.8451      1.00000
     19       6.8943      1.00000
     20       7.2655      1.00000
     21       7.3117      1.00000
     22       7.8018      1.00000
     23       7.9644      1.00000
     24       8.1334      1.00000
     25       8.1445      1.00000
     26       8.6502      1.00000
     27       8.8376      1.00000
     28       8.9959      1.00000
     29       9.0949      1.00000
     30       9.2272      1.00000
     31       9.3442      1.00001
     32      15.0332      0.00000
     33      15.0551      0.00000
     34      16.8561      0.00000
     35      16.9191      0.00000

 k-point    55 :       0.2308    0.2308    0.1538
  band No.  band energies     occupation 
      1     -44.7326      1.00000
      2     -44.6772      1.00000
      3     -44.6679      1.00000
      4     -44.6151      1.00000
      5     -44.5999      1.00000
      6     -44.5653      1.00000
      7     -44.5607      1.00000
      8     -44.4678      1.00000
      9     -44.4576      1.00000
     10       2.6791      1.00000
     11       5.1933      1.00000
     12       5.2574      1.00000
     13       5.3467      1.00000
     14       5.8180      1.00000
     15       5.8600      1.00000
     16       5.8608      1.00000
     17       6.9241      1.00000
     18       7.4719      1.00000
     19       7.4940      1.00000
     20       7.6184      1.00000
     21       7.6340      1.00000
     22       7.6551      1.00000
     23       8.2172      1.00000
     24       8.3739      1.00000
     25       8.3749      1.00000
     26       8.3909      1.00000
     27       8.4676      1.00000
     28       9.2881      1.00000
     29       9.3014      1.00000
     30       9.3907      1.00016
     31      11.9372      0.00000
     32      12.0115      0.00000
     33      13.5880      0.00000
     34      18.3902      0.00000
     35      20.0544      0.00000

 k-point    56 :       0.3077    0.2308    0.1538
  band No.  band energies     occupation 
      1     -44.7289      1.00000
      2     -44.6767      1.00000
      3     -44.6642      1.00000
      4     -44.6175      1.00000
      5     -44.5936      1.00000
      6     -44.5812      1.00000
      7     -44.5527      1.00000
      8     -44.4739      1.00000
      9     -44.4578      1.00000
     10       3.1185      1.00000
     11       5.2100      1.00000
     12       5.4356      1.00000
     13       5.5317      1.00000
     14       5.9511      1.00000
     15       6.0016      1.00000
     16       6.0134      1.00000
     17       6.8410      1.00000
     18       7.2830      1.00000
     19       7.3729      1.00000
     20       7.3898      1.00000
     21       7.4441      1.00000
     22       7.5266      1.00000
     23       8.2004      1.00000
     24       8.2112      1.00000
     25       8.2595      1.00000
     26       8.2777      1.00000
     27       8.6213      1.00000
     28       9.2287      1.00000
     29       9.2390      1.00000
     30       9.3321      1.00000
     31      10.9415     -0.00000
     32      12.5774      0.00000
     33      14.1097      0.00000
     34      17.3609      0.00000
     35      18.9999      0.00000

 k-point    57 :       0.3846    0.2308    0.1538
  band No.  band energies     occupation 
      1     -44.7202      1.00000
      2     -44.6804      1.00000
      3     -44.6649      1.00000
      4     -44.6196      1.00000
      5     -44.6039      1.00000
      6     -44.5738      1.00000
      7     -44.5452      1.00000
      8     -44.4800      1.00000
      9     -44.4606      1.00000
     10       3.6369      1.00000
     11       5.0467      1.00000
     12       5.6539      1.00000
     13       5.7420      1.00000
     14       6.0472      1.00000
     15       6.1309      1.00000
     16       6.1862      1.00000
     17       6.7174      1.00000
     18       7.0197      1.00000
     19       7.1471      1.00000
     20       7.1913      1.00000
     21       7.3519      1.00000
     22       7.5954      1.00000
     23       8.0194      1.00000
     24       8.0941      1.00000
     25       8.1390      1.00000
     26       8.4012      1.00000
     27       8.8226      1.00000
     28       9.1172      1.00000
     29       9.1817      1.00000
     30       9.2788      1.00000
     31      10.0912     -0.00000
     32      13.2165      0.00000
     33      14.4962      0.00000
     34      16.6644      0.00000
     35      18.0263      0.00000

 k-point    58 :       0.4615    0.2308    0.1538
  band No.  band energies     occupation 
      1     -44.7086      1.00000
      2     -44.6898      1.00000
      3     -44.6659      1.00000
      4     -44.6209      1.00000
      5     -44.6105      1.00000
      6     -44.5662      1.00000
      7     -44.5401      1.00000
      8     -44.4842      1.00000
      9     -44.4633      1.00000
     10       4.1852      1.00000
     11       4.6872      1.00000
     12       5.8620      1.00000
     13       5.9516      1.00000
     14       6.0233      1.00000
     15       6.1196      1.00000
     16       6.3786      1.00000
     17       6.5632      1.00000
     18       6.9202      1.00000
     19       6.9953      1.00000
     20       7.1457      1.00000
     21       7.2267      1.00000
     22       7.7036      1.00000
     23       7.8477      1.00000
     24       8.0172      1.00000
     25       8.0362      1.00000
     26       8.6608      1.00000
     27       8.9299      1.00000
     28       9.0722      1.00000
     29       9.1514      1.00000
     30       9.2497      1.00000
     31       9.4635      1.00445
     32      13.8583      0.00000
     33      14.3939      0.00000
     34      16.6327      0.00000
     35      17.2034      0.00000

 k-point    59 :       0.3077    0.3077    0.1538
  band No.  band energies     occupation 
      1     -44.7286      1.00000
      2     -44.6837      1.00000
      3     -44.6629      1.00000
      4     -44.6193      1.00000
      5     -44.5966      1.00000
      6     -44.5819      1.00000
      7     -44.5411      1.00000
      8     -44.4807      1.00000
      9     -44.4538      1.00000
     10       3.5184      1.00000
     11       5.3791      1.00000
     12       5.4296      1.00000
     13       5.6462      1.00000
     14       6.0561      1.00000
     15       6.1462      1.00000
     16       6.1635      1.00000
     17       6.8317      1.00000
     18       7.1101      1.00000
     19       7.1242      1.00000
     20       7.2856      1.00000
     21       7.3946      1.00000
     22       7.5094      1.00000
     23       8.0612      1.00000
     24       8.0937      1.00000
     25       8.1062      1.00000
     26       8.2779      1.00000
     27       8.8278      1.00000
     28       9.1579      1.00000
     29       9.1681      1.00000
     30       9.2515      1.00000
     31      11.4302     -0.00000
     32      11.5366     -0.00000
     33      14.3009      0.00000
     34      16.5805      0.00000
     35      19.5501      0.00000

 k-point    60 :       0.3846    0.3077    0.1538
  band No.  band energies     occupation 
      1     -44.7234      1.00000
      2     -44.6923      1.00000
      3     -44.6644      1.00000
      4     -44.6297      1.00000
      5     -44.5968      1.00000
      6     -44.5723      1.00000
      7     -44.5306      1.00000
      8     -44.4881      1.00000
      9     -44.4527      1.00000
     10       3.9821      1.00000
     11       5.2283      1.00000
     12       5.5892      1.00000
     13       5.7522      1.00000
     14       6.1478      1.00000
     15       6.2762      1.00000
     16       6.3490      1.00000
     17       6.7864      1.00000
     18       6.9625      1.00000
     19       7.0220      1.00000
     20       7.1766      1.00000
     21       7.2930      1.00000
     22       7.5364      1.00000
     23       7.9193      1.00000
     24       7.9393      1.00000
     25       7.9922      1.00000
     26       8.3807      1.00000
     27       9.0352      1.00000
     28       9.0890      1.00000
     29       9.0926      1.00000
     30       9.1715      1.00000
     31      10.5743     -0.00000
     32      12.0800      0.00000
     33      14.0229      0.00000
     34      16.5003      0.00000
     35      18.5904      0.00000

 k-point    61 :       0.4615    0.3077    0.1538
  band No.  band energies     occupation 
      1     -44.7142      1.00000
      2     -44.7028      1.00000
      3     -44.6667      1.00000
      4     -44.6359      1.00000
      5     -44.5962      1.00000
      6     -44.5651      1.00000
      7     -44.5241      1.00000
      8     -44.4934      1.00000
      9     -44.4530      1.00000
     10       4.4631      1.00000
     11       4.9018      1.00000
     12       5.7203      1.00000
     13       5.8156      1.00000
     14       6.2022      1.00000
     15       6.2859      1.00000
     16       6.5455      1.00000
     17       6.6964      1.00000
     18       6.9774      1.00000
     19       7.0308      1.00000
     20       7.0845      1.00000
     21       7.1474      1.00000
     22       7.6213      1.00000
     23       7.7538      1.00000
     24       7.8731      1.00000
     25       7.8990      1.00000
     26       8.5885      1.00000
     27       8.8335      1.00000
     28       9.0466      1.00000
     29       9.1252      1.00000
     30       9.4236      1.00085
     31       9.8933     -0.00517
     32      12.7210      0.00000
     33      13.3980      0.00000
     34      16.9796      0.00000
     35      17.7166      0.00000

 k-point    62 :       0.3846    0.3846    0.1538
  band No.  band energies     occupation 
      1     -44.7234      1.00000
      2     -44.7009      1.00000
      3     -44.6650      1.00000
      4     -44.6451      1.00000
      5     -44.5842      1.00000
      6     -44.5696      1.00000
      7     -44.5188      1.00000
      8     -44.4971      1.00000
      9     -44.4478      1.00000
     10       4.3698      1.00000
     11       5.3756      1.00000
     12       5.4181      1.00000
     13       5.7110      1.00000
     14       6.2988      1.00000
     15       6.4868      1.00000
     16       6.5026      1.00000
     17       6.8420      1.00000
     18       6.9428      1.00000
     19       6.9464      1.00000
     20       7.1756      1.00000
     21       7.2126      1.00000
     22       7.5034      1.00000
     23       7.8030      1.00000
     24       7.8207      1.00000
     25       7.8336      1.00000
     26       8.4184      1.00000
     27       8.9499      1.00000
     28       8.9611      1.00000
     29       9.0543      1.00000
     30       9.4199      1.00071
     31      11.0535     -0.00000
     32      11.1875     -0.00000
     33      13.2289      0.00000
     34      16.9102      0.00000
     35      19.2310      0.00000

 k-point    63 :       0.4615    0.3846    0.1538
  band No.  band energies     occupation 
      1     -44.7220      1.00000
      2     -44.7055      1.00000
      3     -44.6669      1.00000
      4     -44.6532      1.00000
      5     -44.5787      1.00000
      6     -44.5647      1.00000
      7     -44.5123      1.00000
      8     -44.5038      1.00000
      9     -44.4457      1.00000
     10       4.7583      1.00000
     11       5.1133      1.00000
     12       5.5243      1.00000
     13       5.6493      1.00000
     14       6.4257      1.00000
     15       6.5155      1.00000
     16       6.7242      1.00000
     17       6.8478      1.00000
     18       6.9642      1.00000
     19       7.0178      1.00000
     20       7.0718      1.00000
     21       7.1325      1.00000
     22       7.5489      1.00000
     23       7.6663      1.00000
     24       7.7296      1.00000
     25       7.7491      1.00000
     26       8.5581      1.00000
     27       8.7620      1.00000
     28       8.9123      1.00000
     29       8.9768      1.00000
     30       9.8277     -0.02887
     31      10.3723     -0.00000
     32      11.7376      0.00000
     33      12.4383      0.00000
     34      17.5603      0.00000
     35      18.3600      0.00000

 k-point    64 :       0.4615    0.4615    0.1538
  band No.  band energies     occupation 
      1     -44.7274      1.00000
      2     -44.7033      1.00000
      3     -44.6672      1.00000
      4     -44.6644      1.00000
      5     -44.5668      1.00000
      6     -44.5642      1.00000
      7     -44.5123      1.00000
      8     -44.5061      1.00000
      9     -44.4419      1.00000
     10       5.0382      1.00000
     11       5.2880      1.00000
     12       5.3160      1.00000
     13       5.4877      1.00000
     14       6.6187      1.00000
     15       6.7181      1.00000
     16       6.7808      1.00000
     17       6.9340      1.00000
     18       6.9834      1.00000
     19       7.0252      1.00000
     20       7.0438      1.00000
     21       7.1267      1.00000
     22       7.5278      1.00000
     23       7.5967      1.00000
     24       7.6135      1.00000
     25       7.6311      1.00000
     26       8.6150      1.00000
     27       8.7412      1.00000
     28       8.7667      1.00000
     29       8.8417      1.00000
     30      10.3121     -0.00000
     31      10.8614     -0.00000
     32      11.0103     -0.00000
     33      11.6172     -0.00000
     34      18.2730      0.00000
     35      19.0787      0.00000

 k-point    65 :       0.2308    0.2308    0.2308
  band No.  band energies     occupation 
      1     -44.7369      1.00000
      2     -44.6731      1.00000
      3     -44.6731      1.00000
      4     -44.5980      1.00000
      5     -44.5980      1.00000
      6     -44.5902      1.00000
      7     -44.5543      1.00000
      8     -44.4613      1.00000
      9     -44.4613      1.00000
     10       2.9850      1.00000
     11       5.2974      1.00000
     12       5.3859      1.00000
     13       5.3859      1.00000
     14       5.9199      1.00000
     15       5.9725      1.00000
     16       5.9725      1.00000
     17       6.9313      1.00000
     18       7.4550      1.00000
     19       7.4550      1.00000
     20       7.4731      1.00000
     21       7.4762      1.00000
     22       7.4762      1.00000
     23       8.1909      1.00000
     24       8.1909      1.00000
     25       8.1970      1.00000
     26       8.4113      1.00000
     27       8.4113      1.00000
     28       9.3064      1.00000
     29       9.3064      1.00000
     30       9.3999      1.00026
     31      12.3262      0.00000
     32      12.3987      0.00000
     33      12.3987      0.00000
     34      18.8011      0.00000
     35      18.9124      0.00000

 k-point    66 :       0.3077    0.2308    0.2308
  band No.  band energies     occupation 
      1     -44.7359      1.00000
      2     -44.6781      1.00000
      3     -44.6745      1.00000
      4     -44.6134      1.00000
      5     -44.5965      1.00000
      6     -44.5779      1.00000
      7     -44.5470      1.00000
      8     -44.4658      1.00000
      9     -44.4593      1.00000
     10       3.3871      1.00000
     11       5.2922      1.00000
     12       5.4740      1.00000
     13       5.5326      1.00000
     14       6.0513      1.00000
     15       6.1061      1.00000
     16       6.1300      1.00000
     17       6.9087      1.00000
     18       7.2863      1.00000
     19       7.2875      1.00000
     20       7.3053      1.00000
     21       7.4140      1.00000
     22       7.4526      1.00000
     23       8.0114      1.00000
     24       8.0545      1.00000
     25       8.0587      1.00000
     26       8.4344      1.00000
     27       8.6009      1.00000
     28       9.2614      1.00000
     29       9.2815      1.00000
     30       9.3611      1.00003
     31      11.2579     -0.00000
     32      12.8295      0.00000
     33      12.8512      0.00000
     34      17.7779      0.00000
     35      17.8506      0.00000

 k-point    67 :       0.3846    0.2308    0.2308
  band No.  band energies     occupation 
      1     -44.7295      1.00000
      2     -44.6823      1.00000
      3     -44.6819      1.00000
      4     -44.6295      1.00000
      5     -44.5954      1.00000
      6     -44.5599      1.00000
      7     -44.5403      1.00000
      8     -44.4702      1.00000
      9     -44.4610      1.00000
     10       3.8541      1.00000
     11       5.1126      1.00000
     12       5.6027      1.00000
     13       5.6765      1.00000
     14       6.1408      1.00000
     15       6.2050      1.00000
     16       6.3343      1.00000
     17       6.8439      1.00000
     18       7.1512      1.00000
     19       7.1569      1.00000
     20       7.1886      1.00000
     21       7.3205      1.00000
     22       7.4901      1.00000
     23       7.8374      1.00000
     24       7.9465      1.00000
     25       7.9472      1.00000
     26       8.6101      1.00000
     27       8.7907      1.00000
     28       9.2018      1.00000
     29       9.2190      1.00000
     30       9.2981      1.00000
     31      10.3039     -0.00000
     32      13.2972      0.00000
     33      13.3003      0.00000
     34      16.9305      0.00000
     35      17.0072      0.00000

 k-point    68 :       0.4615    0.2308    0.2308
  band No.  band energies     occupation 
      1     -44.7201      1.00000
      2     -44.6940      1.00000
      3     -44.6840      1.00000
      4     -44.6365      1.00000
      5     -44.5948      1.00000
      6     -44.5487      1.00000
      7     -44.5362      1.00000
      8     -44.4731      1.00000
      9     -44.4635      1.00000
     10       4.3393      1.00000
     11       4.7817      1.00000
     12       5.6985      1.00000
     13       5.7820      1.00000
     14       6.1560      1.00000
     15       6.2250      1.00000
     16       6.5488      1.00000
     17       6.7280      1.00000
     18       7.1131      1.00000
     19       7.1267      1.00000
     20       7.1559      1.00000
     21       7.2034      1.00000
     22       7.5691      1.00000
     23       7.6869      1.00000
     24       7.8683      1.00000
     25       7.8719      1.00000
     26       8.9656      1.00000
     27       8.9764      1.00000
     28       9.1132      1.00000
     29       9.1616      1.00000
     30       9.2529      1.00000
     31       9.5408      1.03188
     32      13.6115      0.00000
     33      13.6355      0.00000
     34      16.4096      0.00000
     35      16.4966      0.00000

 k-point    69 :       0.3077    0.3077    0.2308
  band No.  band energies     occupation 
      1     -44.7380      1.00000
      2     -44.6872      1.00000
      3     -44.6781      1.00000
      4     -44.6362      1.00000
      5     -44.5808      1.00000
      6     -44.5676      1.00000
      7     -44.5385      1.00000
      8     -44.4677      1.00000
      9     -44.4561      1.00000
     10       3.7331      1.00000
     11       5.3481      1.00000
     12       5.4205      1.00000
     13       5.5500      1.00000
     14       6.1884      1.00000
     15       6.2687      1.00000
     16       6.2793      1.00000
     17       6.9771      1.00000
     18       7.2027      1.00000
     19       7.2146      1.00000
     20       7.2989      1.00000
     21       7.3781      1.00000
     22       7.4017      1.00000
     23       7.8740      1.00000
     24       7.8865      1.00000
     25       7.8886      1.00000
     26       8.5003      1.00000
     27       8.7523      1.00000
     28       9.2392      1.00000
     29       9.2585      1.00000
     30       9.3359      1.00001
     31      11.6309     -0.00000
     32      11.7062      0.00000
     33      13.0923      0.00000
     34      16.8830      0.00000
     35      18.3452      0.00000

 k-point    70 :       0.3846    0.3077    0.2308
  band No.  band energies     occupation 
      1     -44.7346      1.00000
      2     -44.6971      1.00000
      3     -44.6832      1.00000
      4     -44.6522      1.00000
      5     -44.5750      1.00000
      6     -44.5533      1.00000
      7     -44.5296      1.00000
      8     -44.4723      1.00000
      9     -44.4543      1.00000
     10       4.1245      1.00000
     11       5.1777      1.00000
     12       5.4588      1.00000
     13       5.5730      1.00000
     14       6.2997      1.00000
     15       6.3819      1.00000
     16       6.5046      1.00000
     17       7.0102      1.00000
     18       7.1572      1.00000
     19       7.1954      1.00000
     20       7.2853      1.00000
     21       7.3056      1.00000
     22       7.4105      1.00000
     23       7.7135      1.00000
     24       7.7688      1.00000
     25       7.7871      1.00000
     26       8.6228      1.00000
     27       8.9876      1.00000
     28       9.1792      1.00000
     29       9.1968      1.00000
     30       9.2705      1.00000
     31      10.6556     -0.00000
     32      12.1330      0.00000
     33      13.1905      0.00000
     34      16.3459      0.00000
     35      17.4632      0.00000

 k-point    71 :       0.4615    0.3077    0.2308
  band No.  band energies     occupation 
      1     -44.7274      1.00000
      2     -44.7072      1.00000
      3     -44.6883      1.00000
      4     -44.6586      1.00000
      5     -44.5733      1.00000
      6     -44.5438      1.00000
      7     -44.5237      1.00000
      8     -44.4757      1.00000
      9     -44.4543      1.00000
     10       4.5214      1.00000
     11       4.8863      1.00000
     12       5.4981      1.00000
     13       5.5847      1.00000
     14       6.3593      1.00000
     15       6.4181      1.00000
     16       6.7504      1.00000
     17       6.9483      1.00000
     18       7.1446      1.00000
     19       7.1805      1.00000
     20       7.2579      1.00000
     21       7.3134      1.00000
     22       7.4705      1.00000
     23       7.5739      1.00000
     24       7.6995      1.00000
     25       7.7170      1.00000
     26       8.8598      1.00000
     27       9.0732      1.00000
     28       9.1331      1.00000
     29       9.2125      1.00000
     30       9.3096      1.00000
     31       9.8530     -0.01745
     32      12.6053      0.00000
     33      13.0070      0.00000
     34      16.3208      0.00000
     35      16.7541      0.00000

 k-point    72 :       0.3846    0.3846    0.2308
  band No.  band energies     occupation 
      1     -44.7346      1.00000
      2     -44.7094      1.00000
      3     -44.6850      1.00000
      4     -44.6696      1.00000
      5     -44.5600      1.00000
      6     -44.5491      1.00000
      7     -44.5186      1.00000
      8     -44.4777      1.00000
      9     -44.4488      1.00000
     10       4.4196      1.00000
     11       5.2126      1.00000
     12       5.2754      1.00000
     13       5.4783      1.00000
     14       6.4557      1.00000
     15       6.6060      1.00000
     16       6.6309      1.00000
     17       7.1691      1.00000
     18       7.2212      1.00000
     19       7.2312      1.00000
     20       7.2375      1.00000
     21       7.3600      1.00000
     22       7.4078      1.00000
     23       7.6173      1.00000
     24       7.6405      1.00000
     25       7.6410      1.00000
     26       8.6457      1.00000
     27       9.1115      1.00000
     28       9.1217      1.00000
     29       9.1945      1.00000
     30       9.2903      1.00000
     31      11.0511     -0.00000
     32      11.1569     -0.00000
     33      12.7816      0.00000
     34      16.2823      0.00000
     35      18.0529      0.00000

 k-point    73 :       0.4615    0.3846    0.2308
  band No.  band energies     occupation 
      1     -44.7302      1.00000
      2     -44.7191      1.00000
      3     -44.6888      1.00000
      4     -44.6767      1.00000
      5     -44.5552      1.00000
      6     -44.5430      1.00000
      7     -44.5122      1.00000
      8     -44.4820      1.00000
      9     -44.4462      1.00000
     10       4.7124      1.00000
     11       4.9937      1.00000
     12       5.3016      1.00000
     13       5.4045      1.00000
     14       6.5688      1.00000
     15       6.6354      1.00000
     16       6.8671      1.00000
     17       7.0847      1.00000
     18       7.2437      1.00000
     19       7.2612      1.00000
     20       7.3603      1.00000
     21       7.4015      1.00000
     22       7.4451      1.00000
     23       7.5008      1.00000
     24       7.5575      1.00000
     25       7.5810      1.00000
     26       8.7888      1.00000
     27       8.9822      1.00000
     28       9.0562      1.00000
     29       9.1233      1.00000
     30       9.6897      0.42232
     31      10.2768     -0.00000
     32      11.6272     -0.00000
     33      12.2060      0.00000
     34      16.6447      0.00000
     35      17.2804      0.00000

 k-point    74 :       0.4615    0.4615    0.2308
  band No.  band energies     occupation 
      1     -44.7295      1.00000
      2     -44.7262      1.00000
      3     -44.6892      1.00000
      4     -44.6873      1.00000
      5     -44.5441      1.00000
      6     -44.5424      1.00000
      7     -44.5061      1.00000
      8     -44.4873      1.00000
      9     -44.4420      1.00000
     10       4.8993      1.00000
     11       5.0861      1.00000
     12       5.1317      1.00000
     13       5.2541      1.00000
     14       6.7391      1.00000
     15       6.8201      1.00000
     16       6.8760      1.00000
     17       7.0160      1.00000
     18       7.3652      1.00000
     19       7.3874      1.00000
     20       7.3988      1.00000
     21       7.4237      1.00000
     22       7.4588      1.00000
     23       7.4905      1.00000
     24       7.4920      1.00000
     25       7.5162      1.00000
     26       8.8176      1.00000
     27       8.9324      1.00000
     28       8.9437      1.00000
     29       9.0140      1.00000
     30      10.1626     -0.00000
     31      10.7361     -0.00000
     32      10.8631     -0.00000
     33      11.4447     -0.00000
     34      17.2104      0.00000
     35      17.9210      0.00000

 k-point    75 :       0.3077    0.3077    0.3077
  band No.  band energies     occupation 
      1     -44.7432      1.00000
      2     -44.6906      1.00000
      3     -44.6906      1.00000
      4     -44.6600      1.00000
      5     -44.5579      1.00000
      6     -44.5579      1.00000
      7     -44.5331      1.00000
      8     -44.4590      1.00000
      9     -44.4590      1.00000
     10       4.0017      1.00000
     11       5.2932      1.00000
     12       5.4006      1.00000
     13       5.4006      1.00000
     14       6.3798      1.00000
     15       6.4175      1.00000
     16       6.4175      1.00000
     17       7.1619      1.00000
     18       7.3111      1.00000
     19       7.3111      1.00000
     20       7.3359      1.00000
     21       7.3393      1.00000
     22       7.3393      1.00000
     23       7.6993      1.00000
     24       7.7186      1.00000
     25       7.7186      1.00000
     26       8.7165      1.00000
     27       8.7165      1.00000
     28       9.2683      1.00000
     29       9.2683      1.00000
     30       9.3561      1.00002
     31      11.8617      0.00000
     32      11.9200      0.00000
     33      11.9200      0.00000
     34      17.2949      0.00000
     35      17.4137      0.00000

 k-point    76 :       0.3846    0.3077    0.3077
  band No.  band energies     occupation 
      1     -44.7433      1.00000
      2     -44.6995      1.00000
      3     -44.6985      1.00000
      4     -44.6757      1.00000
      5     -44.5534      1.00000
      6     -44.5393      1.00000
      7     -44.5261      1.00000
      8     -44.4621      1.00000
      9     -44.4548      1.00000
     10       4.2974      1.00000
     11       5.1291      1.00000
     12       5.3148      1.00000
     13       5.3804      1.00000
     14       6.4982      1.00000
     15       6.5310      1.00000
     16       6.6487      1.00000
     17       7.2556      1.00000
     18       7.3228      1.00000
     19       7.3230      1.00000
     20       7.3516      1.00000
     21       7.4238      1.00000
     22       7.4430      1.00000
     23       7.5542      1.00000
     24       7.6026      1.00000
     25       7.6143      1.00000
     26       8.8360      1.00000
     27       8.9128      1.00000
     28       9.2235      1.00000
     29       9.2474      1.00000
     30       9.3196      1.00000
     31      10.8236     -0.00000
     32      12.1272      0.00000
     33      12.1310      0.00000
     34      16.5800      0.00000
     35      16.6698      0.00000

 k-point    77 :       0.4615    0.3077    0.3077
  band No.  band energies     occupation 
      1     -44.7397      1.00000
      2     -44.7097      1.00000
      3     -44.7040      1.00000
      4     -44.6803      1.00000
      5     -44.5518      1.00000
      6     -44.5287      1.00000
      7     -44.5212      1.00000
      8     -44.4642      1.00000
      9     -44.4536      1.00000
     10       4.5942      1.00000
     11       4.8808      1.00000
     12       5.2910      1.00000
     13       5.3683      1.00000
     14       6.5510      1.00000
     15       6.5890      1.00000
     16       6.8952      1.00000
     17       7.1112      1.00000
     18       7.3556      1.00000
     19       7.3772      1.00000
     20       7.3931      1.00000
     21       7.4347      1.00000
     22       7.5044      1.00000
     23       7.5257      1.00000
     24       7.5522      1.00000
     25       7.5663      1.00000
     26       9.0759      1.00000
     27       9.1758      1.00000
     28       9.1896      1.00000
     29       9.2346      1.00000
     30       9.2623      1.00000
     31       9.9173     -0.00205
     32      12.2691      0.00000
     33      12.2878      0.00000
     34      16.1661      0.00000
     35      16.2639      0.00000

 k-point    78 :       0.3846    0.3846    0.3077
  band No.  band energies     occupation 
      1     -44.7472      1.00000
      2     -44.7115      1.00000
      3     -44.7013      1.00000
      4     -44.6926      1.00000
      5     -44.5385      1.00000
      6     -44.5325      1.00000
      7     -44.5181      1.00000
      8     -44.4621      1.00000
      9     -44.4501      1.00000
     10       4.4865      1.00000
     11       5.0715      1.00000
     12       5.1506      1.00000
     13       5.2522      1.00000
     14       6.6465      1.00000
     15       6.7324      1.00000
     16       6.7494      1.00000
     17       7.2316      1.00000
     18       7.2580      1.00000
     19       7.4287      1.00000
     20       7.4456      1.00000
     21       7.4772      1.00000
     22       7.5847      1.00000
     23       7.5871      1.00000
     24       7.6247      1.00000
     25       7.6487      1.00000
     26       8.8555      1.00000
     27       9.1315      1.00000
     28       9.2059      1.00000
     29       9.2251      1.00000
     30       9.2968      1.00000
     31      11.0498     -0.00000
     32      11.1154     -0.00000
     33      12.0008      0.00000
     34      16.1744      0.00000
     35      17.0960      0.00000

 k-point    79 :       0.4615    0.3846    0.3077
  band No.  band energies     occupation 
      1     -44.7472      1.00000
      2     -44.7200      1.00000
      3     -44.7066      1.00000
      4     -44.6972      1.00000
      5     -44.5351      1.00000
      6     -44.5254      1.00000
      7     -44.5121      1.00000
      8     -44.4639      1.00000
      9     -44.4468      1.00000
     10       4.6822      1.00000
     11       4.8964      1.00000
     12       5.1095      1.00000
     13       5.1867      1.00000
     14       6.7347      1.00000
     15       6.7725      1.00000
     16       6.9520      1.00000
     17       7.1238      1.00000
     18       7.2729      1.00000
     19       7.3353      1.00000
     20       7.3835      1.00000
     21       7.4105      1.00000
     22       7.6963      1.00000
     23       7.7488      1.00000
     24       7.7603      1.00000
     25       7.7775      1.00000
     26       9.0057      1.00000
     27       9.1523      1.00000
     28       9.1638      1.00000
     29       9.2382      1.00000
     30       9.5060      1.01664
     31      10.1712     -0.00000
     32      11.4042     -0.00000
     33      11.7363      0.00000
     34      16.1472      0.00000
     35      16.5068      0.00000

 k-point    80 :       0.4615    0.4615    0.3077
  band No.  band energies     occupation 
      1     -44.7504      1.00000
      2     -44.7266      1.00000
      3     -44.7071      1.00000
      4     -44.7062      1.00000
      5     -44.5257      1.00000
      6     -44.5247      1.00000
      7     -44.5060      1.00000
      8     -44.4659      1.00000
      9     -44.4421      1.00000
     10       4.7829      1.00000
     11       4.9236      1.00000
     12       4.9770      1.00000
     13       5.0547      1.00000
     14       6.8711      1.00000
     15       6.9246      1.00000
     16       6.9698      1.00000
     17       7.0802      1.00000
     18       7.2379      1.00000
     19       7.2783      1.00000
     20       7.2936      1.00000
     21       7.3226      1.00000
     22       7.9222      1.00000
     23       7.9296      1.00000
     24       7.9420      1.00000
     25       7.9743      1.00000
     26       8.9980      1.00000
     27       9.0907      1.00000
     28       9.0944      1.00000
     29       9.1643      1.00000
     30       9.9405     -0.00073
     31      10.5351     -0.00000
     32      10.6302     -0.00000
     33      11.1252     -0.00000
     34      16.4523      0.00000
     35      16.9926      0.00000

 k-point    81 :       0.3846    0.3846    0.3846
  band No.  band energies     occupation 
      1     -44.7557      1.00000
      2     -44.7126      1.00000
      3     -44.7126      1.00000
      4     -44.7099      1.00000
      5     -44.5225      1.00000
      6     -44.5225      1.00000
      7     -44.5156      1.00000
      8     -44.4515      1.00000
      9     -44.4515      1.00000
     10       4.5731      1.00000
     11       4.9583      1.00000
     12       5.0604      1.00000
     13       5.0604      1.00000
     14       6.8380      1.00000
     15       6.8380      1.00000
     16       6.8438      1.00000
     17       7.2040      1.00000
     18       7.2040      1.00000
     19       7.3125      1.00000
     20       7.3495      1.00000
     21       7.3495      1.00000
     22       7.8876      1.00000
     23       7.8925      1.00000
     24       7.8925      1.00000
     25       8.1189      1.00000
     26       9.0329      1.00000
     27       9.0329      1.00000
     28       9.2420      1.00000
     29       9.2420      1.00000
     30       9.3261      1.00000
     31      11.0405     -0.00000
     32      11.0727     -0.00000
     33      11.0727     -0.00000
     34      16.3610      0.00000
     35      16.4992      0.00000

 k-point    82 :       0.4615    0.3846    0.3846
  band No.  band energies     occupation 
      1     -44.7596      1.00000
      2     -44.7208      1.00000
      3     -44.7185      1.00000
      4     -44.7119      1.00000
      5     -44.5204      1.00000
      6     -44.5140      1.00000
      7     -44.5110      1.00000
      8     -44.4525      1.00000
      9     -44.4462      1.00000
     10       4.6795      1.00000
     11       4.8371      1.00000
     12       4.9607      1.00000
     13       5.0134      1.00000
     14       6.8918      1.00000
     15       6.9009      1.00000
     16       7.0064      1.00000
     17       7.1345      1.00000
     18       7.1989      1.00000
     19       7.2353      1.00000
     20       7.2671      1.00000
     21       7.2907      1.00000
     22       8.1065      1.00000
     23       8.1118      1.00000
     24       8.1260      1.00000
     25       8.2972      1.00000
     26       9.1618      1.00000
     27       9.2071      1.00000
     28       9.2300      1.00000
     29       9.2955      1.00000
     30       9.3596      1.00003
     31      10.1356     -0.00000
     32      11.0450     -0.00000
     33      11.0542     -0.00000
     34      16.0435      0.00000
     35      16.1493      0.00000

 k-point    83 :       0.4615    0.4615    0.3846
  band No.  band energies     occupation 
      1     -44.7660      1.00000
      2     -44.7264      1.00000
      3     -44.7196      1.00000
      4     -44.7195      1.00000
      5     -44.5128      1.00000
      6     -44.5123      1.00000
      7     -44.5060      1.00000
      8     -44.4504      1.00000
      9     -44.4423      1.00000
     10       4.7018      1.00000
     11       4.8179      1.00000
     12       4.8676      1.00000
     13       4.9041      1.00000
     14       6.9880      1.00000
     15       7.0094      1.00000
     16       7.0434      1.00000
     17       7.1222      1.00000
     18       7.1522      1.00000
     19       7.1734      1.00000
     20       7.1976      1.00000
     21       7.2171      1.00000
     22       8.3897      1.00000
     23       8.4183      1.00000
     24       8.4258      1.00000
     25       8.6035      1.00000
     26       9.1388      1.00000
     27       9.1876      1.00000
     28       9.2029      1.00000
     29       9.2709      1.00000
     30       9.6421      0.79949
     31      10.2598     -0.00000
     32      10.3130     -0.00000
     33      10.6304     -0.00000
     34      16.0548      0.00000
     35      16.3506      0.00000

 k-point    84 :       0.4615    0.4615    0.4615
  band No.  band energies     occupation 
      1     -44.7741      1.00000
      2     -44.7265      1.00000
      3     -44.7261      1.00000
      4     -44.7261      1.00000
      5     -44.5062      1.00000
      6     -44.5062      1.00000
      7     -44.5057      1.00000
      8     -44.4424      1.00000
      9     -44.4424      1.00000
     10       4.6600      1.00000
     11       4.7789      1.00000
     12       4.8113      1.00000
     13       4.8113      1.00000
     14       7.0590      1.00000
     15       7.0590      1.00000
     16       7.0888      1.00000
     17       7.1038      1.00000
     18       7.1295      1.00000
     19       7.1295      1.00000
     20       7.1532      1.00000
     21       7.1532      1.00000
     22       8.8260      1.00000
     23       8.8442      1.00000
     24       8.8442      1.00000
     25       9.2159      1.00000
     26       9.2159      1.00000
     27       9.2410      1.00000
     28       9.2410      1.00000
     29       9.3105      1.00000
     30       9.3357      1.00001
     31       9.9908     -0.00005
     32       9.9991     -0.00003
     33       9.9991     -0.00003
     34      15.9379      0.00000
     35      16.1037      0.00000
 Fermi energy:         9.6804717874

 spin component 2

 k-point     1 :       0.0000    0.0000    0.0000
  band No.  band energies     occupation 
      1     -41.8125      1.00000
      2     -41.8125      1.00000
      3     -41.8125      1.00000
      4     -41.6379      1.00000
      5     -41.6379      1.00000
      6     -41.6379      1.00000
      7     -41.5195      1.00000
      8     -41.5195      1.00000
      9     -41.5195      1.00000
     10       1.2960      1.00000
     11       6.2063      1.00000
     12       6.2064      1.00000
     13       6.2467      1.00000
     14       6.9605      1.00000
     15       6.9605      1.00000
     16       6.9605      1.00000
     17       9.3447      1.00001
     18       9.3447      1.00001
     19       9.3447      1.00001
     20      10.8555     -0.00000
     21      10.8555     -0.00000
     22      11.7376      0.00000
     23      11.7376      0.00000
     24      11.7376      0.00000
     25      11.9220      0.00000
     26      11.9220      0.00000
     27      12.2388      0.00000
     28      12.2758      0.00000
     29      12.2758      0.00000
     30      12.2758      0.00000
     31      12.4632      0.00000
     32      12.4632      0.00000
     33      12.4632      0.00000
     34      20.6259      0.00000
     35      20.7222      0.00000

 k-point     2 :       0.0769    0.0000    0.0000
  band No.  band energies     occupation 
      1     -41.8101      1.00000
      2     -41.8101      1.00000
      3     -41.8087      1.00000
      4     -41.6386      1.00000
      5     -41.6386      1.00000
      6     -41.6381      1.00000
      7     -41.5241      1.00000
      8     -41.5213      1.00000
      9     -41.5213      1.00000
     10       1.3731      1.00000
     11       6.2077      1.00000
     12       6.2524      1.00000
     13       6.2882      1.00000
     14       6.9895      1.00000
     15       6.9896      1.00000
     16       6.9903      1.00000
     17       9.3060      1.00000
     18       9.3687      1.00005
     19       9.3687      1.00005
     20      10.8118     -0.00000
     21      10.8656     -0.00000
     22      11.3507     -0.00000
     23      11.3507     -0.00000
     24      11.7365      0.00000
     25      11.8602      0.00000
     26      11.9046      0.00000
     27      12.0060      0.00000
     28      12.0060      0.00000
     29      12.1996      0.00000
     30      12.2043      0.00000
     31      12.2759      0.00000
     32      13.1231      0.00000
     33      13.1231      0.00000
     34      20.6578      0.00000
     35      20.7207      0.00000

 k-point     3 :       0.1538    0.0000    0.0000
  band No.  band energies     occupation 
      1     -41.8030      1.00000
      2     -41.8030      1.00000
      3     -41.7973      1.00000
      4     -41.6408      1.00000
      5     -41.6408      1.00000
      6     -41.6388      1.00000
      7     -41.5373      1.00000
      8     -41.5263      1.00000
      9     -41.5263      1.00000
     10       1.6023      1.00000
     11       6.1697      1.00000
     12       6.3850      1.00000
     13       6.4314      1.00000
     14       7.0769      1.00000
     15       7.0769      1.00000
     16       7.0785      1.00000
     17       9.1932      1.00000
     18       9.4374      1.00157
     19       9.4375      1.00157
     20      10.6733     -0.00000
     21      10.6992     -0.00000
     22      10.6992     -0.00000
     23      10.8945     -0.00000
     24      11.5151     -0.00000
     25      11.7336      0.00000
     26      11.7658      0.00000
     27      11.8150      0.00000
     28      11.8150      0.00000
     29      11.8462      0.00000
     30      12.0940      0.00000
     31      12.2762      0.00000
     32      13.9867      0.00000
     33      13.9867      0.00000
     34      20.6772      0.00000
     35      20.7171      0.00000

 k-point     4 :       0.2308    0.0000    0.0000
  band No.  band energies     occupation 
      1     -41.7922      1.00000
      2     -41.7922      1.00000
      3     -41.7790      1.00000
      4     -41.6447      1.00000
      5     -41.6447      1.00000
      6     -41.6398      1.00000
      7     -41.5583      1.00000
      8     -41.5334      1.00000
      9     -41.5334      1.00000
     10       1.9771      1.00000
     11       6.0393      1.00000
     12       6.5859      1.00000
     13       6.6568      1.00000
     14       7.2211      1.00000
     15       7.2229      1.00000
     16       7.2229      1.00000
     17       9.0157      1.00000
     18       9.5250      1.02515
     19       9.5250      1.02515
     20      10.1013     -0.00000
     21      10.1013     -0.00000
     22      10.3895     -0.00000
     23      10.9048     -0.00000
     24      10.9386     -0.00000
     25      11.5067     -0.00000
     26      11.5701     -0.00000
     27      11.5701     -0.00000
     28      11.7212      0.00000
     29      11.7299      0.00000
     30      11.9677      0.00000
     31      12.2765      0.00000
     32      14.9152      0.00000
     33      14.9152      0.00000
     34      20.7109      0.00000
     35      20.7137      0.00000

 k-point     5 :       0.3077    0.0000    0.0000
  band No.  band energies     occupation 
      1     -41.7793      1.00000
      2     -41.7793      1.00000
      3     -41.7547      1.00000
      4     -41.6501      1.00000
      5     -41.6501      1.00000
      6     -41.6408      1.00000
      7     -41.5853      1.00000
      8     -41.5411      1.00000
      9     -41.5411      1.00000
     10       2.4854      1.00000
     11       5.7375      1.00000
     12       6.8217      1.00000
     13       6.9304      1.00000
     14       7.4109      1.00000
     15       7.4280      1.00000
     16       7.4280      1.00000
     17       8.7887      1.00000
     18       9.3597      1.00003
     19       9.3597      1.00003
     20       9.8576     -0.01557
     21       9.8576     -0.01557
     22       9.9584     -0.00030
     23      10.5332     -0.00000
     24      10.9904     -0.00000
     25      11.2184     -0.00000
     26      11.2818     -0.00000
     27      11.2818     -0.00000
     28      11.5207     -0.00000
     29      11.7262      0.00000
     30      11.8699      0.00000
     31      12.2770      0.00000
     32      15.8942      0.00000
     33      15.8942      0.00000
     34      20.7132      0.00000
     35      20.7690      0.00000

 k-point     6 :       0.3846    0.0000    0.0000
  band No.  band energies     occupation 
      1     -41.7669      1.00000
      2     -41.7669      1.00000
      3     -41.7262      1.00000
      4     -41.6564      1.00000
      5     -41.6564      1.00000
      6     -41.6416      1.00000
      7     -41.6162      1.00000
      8     -41.5474      1.00000
      9     -41.5474      1.00000
     10       3.1073      1.00000
     11       5.2221      1.00000
     12       7.0405      1.00000
     13       7.1963      1.00000
     14       7.6353      1.00000
     15       7.6907      1.00000
     16       7.6907      1.00000
     17       8.5336      1.00000
     18       8.8949      1.00000
     19       8.8949      1.00000
     20       9.6442      0.78566
     21      10.0141     -0.00001
     22      10.0141     -0.00001
     23      10.3033     -0.00000
     24      10.9428     -0.00000
     25      10.9820     -0.00000
     26      10.9820     -0.00000
     27      11.0377     -0.00000
     28      11.3118     -0.00000
     29      11.7235      0.00000
     30      11.8007      0.00000
     31      12.2773      0.00000
     32      16.9163      0.00000
     33      16.9163      0.00000
     34      20.1725      0.00000
     35      20.1725      0.00000

 k-point     7 :       0.4615    0.0000    0.0000
  band No.  band energies     occupation 
      1     -41.7588      1.00000
      2     -41.7588      1.00000
      3     -41.6979      1.00000
      4     -41.6610      1.00000
      5     -41.6610      1.00000
      6     -41.6457      1.00000
      7     -41.6421      1.00000
      8     -41.5510      1.00000
      9     -41.5510      1.00000
     10       3.8085      1.00000
     11       4.5494      1.00000
     12       7.1763      1.00000
     13       7.3703      1.00000
     14       7.8561      1.00000
     15       7.9937      1.00000
     16       7.9937      1.00000
     17       8.2954      1.00000
     18       8.4736      1.00000
     19       8.4736      1.00000
     20       9.5138      1.02004
     21      10.1758     -0.00000
     22      10.2074     -0.00000
     23      10.2074     -0.00000
     24      10.7291     -0.00000
     25      10.7291     -0.00000
     26      10.7636     -0.00000
     27      11.0613     -0.00000
     28      11.1835     -0.00000
     29      11.7220      0.00000
     30      11.7613      0.00000
     31      12.2775      0.00000
     32      17.9750      0.00000
     33      17.9750      0.00000
     34      19.0635      0.00000
     35      19.0635      0.00000

 k-point     8 :       0.0769    0.0769    0.0000
  band No.  band energies     occupation 
      1     -41.8114      1.00000
      2     -41.8076      1.00000
      3     -41.8012      1.00000
      4     -41.6426      1.00000
      5     -41.6393      1.00000
      6     -41.6351      1.00000
      7     -41.5314      1.00000
      8     -41.5232      1.00000
      9     -41.5200      1.00000
     10       1.4498      1.00000
     11       6.2487      1.00000
     12       6.2646      1.00000
     13       6.3248      1.00000
     14       7.0165      1.00000
     15       7.0172      1.00000
     16       7.0212      1.00000
     17       9.2762      1.00000
     18       9.3850      1.00012
     19       9.3902      1.00016
     20      10.7948     -0.00000
     21      10.8399     -0.00000
     22      11.0993     -0.00000
     23      11.1621     -0.00000
     24      11.4577     -0.00000
     25      11.7059      0.00000
     26      11.8324      0.00000
     27      11.8770      0.00000
     28      11.9741      0.00000
     29      12.1609      0.00000
     30      12.2292      0.00000
     31      12.7800      0.00000
     32      13.0076      0.00000
     33      13.4855      0.00000
     34      20.6864      0.00000
     35      21.0760      0.00000

 k-point     9 :       0.1538    0.0769    0.0000
  band No.  band energies     occupation 
      1     -41.8075      1.00000
      2     -41.8005      1.00000
      3     -41.7874      1.00000
      4     -41.6479      1.00000
      5     -41.6413      1.00000
      6     -41.6327      1.00000
      7     -41.5461      1.00000
      8     -41.5283      1.00000
      9     -41.5228      1.00000
     10       1.6779      1.00000
     11       6.2205      1.00000
     12       6.3948      1.00000
     13       6.4631      1.00000
     14       7.1003      1.00000
     15       7.1003      1.00000
     16       7.1099      1.00000
     17       9.1707      1.00000
     18       9.4501      1.00266
     19       9.4506      1.00271
     20      10.5551     -0.00000
     21      10.5711     -0.00000
     22      10.6599     -0.00000
     23      10.8936     -0.00000
     24      11.0465     -0.00000
     25      11.6807      0.00000
     26      11.6890      0.00000
     27      11.8171      0.00000
     28      11.8277      0.00000
     29      12.0459      0.00000
     30      12.2073      0.00000
     31      12.4176      0.00000
     32      13.7409      0.00000
     33      14.2246      0.00000
     34      20.6811      0.00000
     35      21.1289      0.00000

 k-point    10 :       0.2308    0.0769    0.0000
  band No.  band energies     occupation 
      1     -41.7982      1.00000
      2     -41.7897      1.00000
      3     -41.7687      1.00000
      4     -41.6546      1.00000
      5     -41.6450      1.00000
      6     -41.6310      1.00000
      7     -41.5663      1.00000
      8     -41.5357      1.00000
      9     -41.5293      1.00000
     10       2.0507      1.00000
     11       6.0928      1.00000
     12       6.6015      1.00000
     13       6.6843      1.00000
     14       7.2384      1.00000
     15       7.2391      1.00000
     16       7.2547      1.00000
     17       8.9991      1.00000
     18       9.5161      1.02107
     19       9.5371      1.03047
     20      10.0050     -0.00002
     21      10.0306     -0.00000
     22      10.3032     -0.00000
     23      10.7014     -0.00000
     24      10.9360     -0.00000
     25      11.4592     -0.00000
     26      11.5579     -0.00000
     27      11.6977      0.00000
     28      11.6997      0.00000
     29      11.8122      0.00000
     30      12.0590      0.00000
     31      12.2058      0.00000
     32      14.6121      0.00000
     33      15.0985      0.00000
     34      20.6097      0.00000
     35      21.1679      0.00000

 k-point    11 :       0.3077    0.0769    0.0000
  band No.  band energies     occupation 
      1     -41.7850      1.00000
      2     -41.7767      1.00000
      3     -41.7464      1.00000
      4     -41.6624      1.00000
      5     -41.6503      1.00000
      6     -41.6299      1.00000
      7     -41.5908      1.00000
      8     -41.5436      1.00000
      9     -41.5375      1.00000
     10       2.5563      1.00000
     11       5.7931      1.00000
     12       6.8432      1.00000
     13       6.9570      1.00000
     14       7.4267      1.00000
     15       7.4304      1.00000
     16       7.4549      1.00000
     17       8.7781      1.00000
     18       9.2924      1.00000
     19       9.3473      1.00001
     20       9.8080     -0.03510
     21       9.8428     -0.02198
     22       9.8653     -0.01266
     23      10.4804     -0.00000
     24      10.9767     -0.00000
     25      11.1815     -0.00000
     26      11.2779     -0.00000
     27      11.4618     -0.00000
     28      11.5163     -0.00000
     29      11.6847      0.00000
     30      11.9051      0.00000
     31      12.2070      0.00000
     32      15.5167      0.00000
     33      16.0478      0.00000
     34      20.0989      0.00000
     35      21.0052      0.00000

 k-point    12 :       0.3846    0.0769    0.0000
  band No.  band energies     occupation 
      1     -41.7708      1.00000
      2     -41.7641      1.00000
      3     -41.7230      1.00000
      4     -41.6695      1.00000
      5     -41.6564      1.00000
      6     -41.6307      1.00000
      7     -41.6164      1.00000
      8     -41.5502      1.00000
      9     -41.5448      1.00000
     10       3.1749      1.00000
     11       5.2797      1.00000
     12       7.0681      1.00000
     13       7.2259      1.00000
     14       7.6485      1.00000
     15       7.6747      1.00000
     16       7.7108      1.00000
     17       8.5293      1.00000
     18       8.8310      1.00000
     19       8.8886      1.00000
     20       9.5789      1.02667
     21       9.9025     -0.00368
     22      10.0133     -0.00001
     23      10.3500     -0.00000
     24      10.8805     -0.00000
     25      10.9784     -0.00000
     26      10.9952     -0.00000
     27      11.1674     -0.00000
     28      11.3378     -0.00000
     29      11.6793     -0.00000
     30      11.8152      0.00000
     31      12.2080      0.00000
     32      16.4403      0.00000
     33      17.0515      0.00000
     34      19.2209      0.00000
     35      20.2836      0.00000

 k-point    13 :       0.4615    0.0769    0.0000
  band No.  band energies     occupation 
      1     -41.7606      1.00000
      2     -41.7559      1.00000
      3     -41.7061      1.00000
      4     -41.6686      1.00000
      5     -41.6610      1.00000
      6     -41.6464      1.00000
      7     -41.6264      1.00000
      8     -41.5540      1.00000
      9     -41.5491      1.00000
     10       3.8723      1.00000
     11       4.6098      1.00000
     12       7.2086      1.00000
     13       7.4029      1.00000
     14       7.8668      1.00000
     15       7.9609      1.00000
     16       8.0036      1.00000
     17       8.2991      1.00000
     18       8.4192      1.00000
     19       8.4772      1.00000
     20       9.4711      1.00583
     21       9.9256     -0.00144
     22      10.2108     -0.00000
     23      10.4169     -0.00000
     24      10.6432     -0.00000
     25      10.7234     -0.00000
     26      10.8515     -0.00000
     27      11.0724     -0.00000
     28      11.2520     -0.00000
     29      11.6769     -0.00000
     30      11.7651      0.00000
     31      12.2085      0.00000
     32      17.3707      0.00000
     33      18.0983      0.00000
     34      18.3000      0.00000
     35      19.1790      0.00000

 k-point    14 :       0.1538    0.1538    0.0000
  band No.  band energies     occupation 
      1     -41.8083      1.00000
      2     -41.7933      1.00000
      3     -41.7708      1.00000
      4     -41.6573      1.00000
      5     -41.6431      1.00000
      6     -41.6264      1.00000
      7     -41.5627      1.00000
      8     -41.5339      1.00000
      9     -41.5213      1.00000
     10       1.9023      1.00000
     11       6.3614      1.00000
     12       6.3738      1.00000
     13       6.5908      1.00000
     14       7.1701      1.00000
     15       7.1768      1.00000
     16       7.1968      1.00000
     17       9.0887      1.00000
     18       9.4826      1.00856
     19       9.5033      1.01556
     20      10.2012     -0.00000
     21      10.2372     -0.00000
     22      10.4008     -0.00000
     23      10.6946     -0.00000
     24      10.9113     -0.00000
     25      11.5862     -0.00000
     26      11.6140     -0.00000
     27      11.7502      0.00000
     28      11.7675      0.00000
     29      11.9390      0.00000
     30      12.0944      0.00000
     31      13.0113      0.00000
     32      13.3189      0.00000
     33      14.8117      0.00000
     34      20.5347      0.00000
     35      21.3412      0.00000

 k-point    15 :       0.2308    0.1538    0.0000
  band No.  band energies     occupation 
      1     -41.8033      1.00000
      2     -41.7822      1.00000
      3     -41.7511      1.00000
      4     -41.6684      1.00000
      5     -41.6462      1.00000
      6     -41.6206      1.00000
      7     -41.5826      1.00000
      8     -41.5420      1.00000
      9     -41.5244      1.00000
     10       2.2693      1.00000
     11       6.2482      1.00000
     12       6.5928      1.00000
     13       6.7981      1.00000
     14       7.2844      1.00000
     15       7.3050      1.00000
     16       7.3370      1.00000
     17       8.9406      1.00000
     18       9.4594      1.00381
     19       9.5826      1.02279
     20       9.7983     -0.03511
     21       9.8308     -0.02752
     22       9.9525     -0.00041
     23      10.5593     -0.00000
     24      10.9493     -0.00000
     25      11.3935     -0.00000
     26      11.5217     -0.00000
     27      11.6215     -0.00000
     28      11.6462     -0.00000
     29      11.7655      0.00000
     30      12.0417      0.00000
     31      12.5762      0.00000
     32      13.9504      0.00000
     33      15.5868      0.00000
     34      19.7985      0.00000
     35      21.0070      0.00000

 k-point    16 :       0.3077    0.1538    0.0000
  band No.  band energies     occupation 
      1     -41.7929      1.00000
      2     -41.7689      1.00000
      3     -41.7311      1.00000
      4     -41.6802      1.00000
      5     -41.6509      1.00000
      6     -41.6171      1.00000
      7     -41.6018      1.00000
      8     -41.5509      1.00000
      9     -41.5309      1.00000
     10       2.7668      1.00000
     11       5.9554      1.00000
     12       6.8620      1.00000
     13       7.0568      1.00000
     14       7.4379      1.00000
     15       7.4798      1.00000
     16       7.5285      1.00000
     17       8.7413      1.00000
     18       9.1127      1.00000
     19       9.2971      1.00000
     20       9.5867      1.01743
     21       9.7237      0.16931
     22       9.8197     -0.03207
     23      10.4205     -0.00000
     24      10.9945     -0.00000
     25      11.1476     -0.00000
     26      11.2652     -0.00000
     27      11.4663     -0.00000
     28      11.5683     -0.00000
     29      11.5765     -0.00000
     30      12.0269      0.00000
     31      12.1752      0.00000
     32      14.7194      0.00000
     33      16.4723      0.00000
     34      18.8381      0.00000
     35      21.0321      0.00000

 k-point    17 :       0.3846    0.1538    0.0000
  band No.  band energies     occupation 
      1     -41.7788      1.00000
      2     -41.7559      1.00000
      3     -41.7195      1.00000
      4     -41.6849      1.00000
      5     -41.6566      1.00000
      6     -41.6295      1.00000
      7     -41.6056      1.00000
      8     -41.5584      1.00000
      9     -41.5387      1.00000
     10       3.3752      1.00000
     11       5.4481      1.00000
     12       7.1201      1.00000
     13       7.3178      1.00000
     14       7.6291      1.00000
     15       7.6889      1.00000
     16       7.7686      1.00000
     17       8.5132      1.00000
     18       8.6750      1.00000
     19       8.8673      1.00000
     20       9.4007      1.00028
     21       9.7257      0.15736
     22      10.0163     -0.00001
     23      10.3540     -0.00000
     24      10.8894     -0.00000
     25      10.9675     -0.00000
     26      10.9945     -0.00000
     27      11.2112     -0.00000
     28      11.4654     -0.00000
     29      11.5616     -0.00000
     30      11.9363      0.00000
     31      12.0225      0.00000
     32      15.4986      0.00000
     33      17.4330      0.00000
     34      17.9312      0.00000
     35      20.6044      0.00000

 k-point    18 :       0.4615    0.1538    0.0000
  band No.  band energies     occupation 
      1     -41.7652      1.00000
      2     -41.7472      1.00000
      3     -41.7254      1.00000
      4     -41.6719      1.00000
      5     -41.6611      1.00000
      6     -41.6492      1.00000
      7     -41.6027      1.00000
      8     -41.5627      1.00000
      9     -41.5443      1.00000
     10       4.0610      1.00000
     11       4.7873      1.00000
     12       7.2891      1.00000
     13       7.4805      1.00000
     14       7.8797      1.00000
     15       7.8975      1.00000
     16       8.0316      1.00000
     17       8.2847      1.00000
     18       8.3090      1.00000
     19       8.4868      1.00000
     20       9.3591      1.00003
     21       9.6794      0.50941
     22      10.2229     -0.00000
     23      10.4059     -0.00000
     24      10.7075     -0.00000
     25      10.7216     -0.00000
     26      10.8723     -0.00000
     27      11.0685     -0.00000
     28      11.4627     -0.00000
     29      11.5556     -0.00000
     30      11.8094      0.00000
     31      12.0212      0.00000
     32      16.2838      0.00000
     33      17.0881      0.00000
     34      18.4500      0.00000
     35      19.5117      0.00000

 k-point    19 :       0.2308    0.2308    0.0000
  band No.  band energies     occupation 
      1     -41.8030      1.00000
      2     -41.7708      1.00000
      3     -41.7317      1.00000
      4     -41.6844      1.00000
      5     -41.6485      1.00000
      6     -41.6101      1.00000
      7     -41.6009      1.00000
      8     -41.5514      1.00000
      9     -41.5232      1.00000
     10       2.6264      1.00000
     11       6.4856      1.00000
     12       6.4940      1.00000
     13       6.9921      1.00000
     14       7.3579      1.00000
     15       7.4173      1.00000
     16       7.4676      1.00000
     17       8.8292      1.00000
     18       9.2422      1.00000
     19       9.5216      1.02358
     20       9.5346      1.02947
     21       9.6840      0.47040
     22       9.6918      0.40507
     23      10.4506     -0.00000
     24      10.9997     -0.00000
     25      11.2585     -0.00000
     26      11.4721     -0.00000
     27      11.4789     -0.00000
     28      11.5728     -0.00000
     29      11.6057     -0.00000
     30      11.8851      0.00000
     31      13.0404      0.00000
     32      13.4151      0.00000
     33      16.2762      0.00000
     34      18.6760      0.00000
     35      21.0277      0.00000

 k-point    20 :       0.3077    0.2308    0.0000
  band No.  band energies     occupation 
      1     -41.7971      1.00000
      2     -41.7568      1.00000
      3     -41.7155      1.00000
      4     -41.6994      1.00000
      5     -41.6521      1.00000
      6     -41.6194      1.00000
      7     -41.5990      1.00000
      8     -41.5620      1.00000
      9     -41.5263      1.00000
     10       3.1101      1.00000
     11       6.2090      1.00000
     12       6.7875      1.00000
     13       7.2374      1.00000
     14       7.4494      1.00000
     15       7.5711      1.00000
     16       7.6434      1.00000
     17       8.6692      1.00000
     18       8.9014      1.00000
     19       9.1779      1.00000
     20       9.2436      1.00000
     21       9.6525      0.72665
     22       9.8404     -0.02311
     23      10.3263     -0.00000
     24      11.0417     -0.00000
     25      11.0674     -0.00000
     26      11.2360     -0.00000
     27      11.3837     -0.00000
     28      11.4325     -0.00000
     29      11.5252     -0.00000
     30      11.8042      0.00000
     31      12.6323      0.00000
     32      13.9119      0.00000
     33      17.0964      0.00000
     34      17.6477      0.00000
     35      21.1366      0.00000

 k-point    21 :       0.3846    0.2308    0.0000
  band No.  band energies     occupation 
      1     -41.7860      1.00000
      2     -41.7429      1.00000
      3     -41.7272      1.00000
      4     -41.6888      1.00000
      5     -41.6569      1.00000
      6     -41.6367      1.00000
      7     -41.5883      1.00000
      8     -41.5713      1.00000
      9     -41.5323      1.00000
     10       3.7007      1.00000
     11       5.7136      1.00000
     12       7.0918      1.00000
     13       7.4703      1.00000
     14       7.5700      1.00000
     15       7.7562      1.00000
     16       7.8589      1.00000
     17       8.4795      1.00000
     18       8.5273      1.00000
     19       8.8231      1.00000
     20       9.1619      1.00000
     21       9.5880      1.01547
     22      10.0388     -0.00000
     23      10.2523     -0.00000
     24      10.8770     -0.00000
     25      10.9473     -0.00000
     26      10.9896     -0.00000
     27      11.1518     -0.00000
     28      11.4056     -0.00000
     29      11.5777     -0.00000
     30      11.7725      0.00000
     31      12.2483      0.00000
     32      14.5608      0.00000
     33      16.7462      0.00000
     34      18.0082      0.00000
     35      21.1041      0.00000

 k-point    22 :       0.4615    0.2308    0.0000
  band No.  band energies     occupation 
      1     -41.7716      1.00000
      2     -41.7460      1.00000
      3     -41.7334      1.00000
      4     -41.6717      1.00000
      5     -41.6611      1.00000
      6     -41.6531      1.00000
      7     -41.5805      1.00000
      8     -41.5766      1.00000
      9     -41.5380      1.00000
     10       4.3654      1.00000
     11       5.0707      1.00000
     12       7.3311      1.00000
     13       7.5004      1.00000
     14       7.8455      1.00000
     15       7.9446      1.00000
     16       8.0729      1.00000
     17       8.1749      1.00000
     18       8.3227      1.00000
     19       8.4979      1.00000
     20       9.2133      1.00000
     21       9.4759      1.00688
     22      10.2500     -0.00000
     23      10.2527     -0.00000
     24      10.6837     -0.00000
     25      10.7800     -0.00000
     26      10.8506     -0.00000
     27      11.0196     -0.00000
     28      11.3927     -0.00000
     29      11.7207      0.00000
     30      11.7612      0.00000
     31      11.9812      0.00000
     32      15.2357      0.00000
     33      15.9536      0.00000
     34      18.9881      0.00000
     35      20.0277      0.00000

 k-point    23 :       0.3077    0.3077    0.0000
  band No.  band energies     occupation 
      1     -41.7963      1.00000
      2     -41.7418      1.00000
      3     -41.7230      1.00000
      4     -41.6975      1.00000
      5     -41.6542      1.00000
      6     -41.6322      1.00000
      7     -41.5853      1.00000
      8     -41.5751      1.00000
      9     -41.5252      1.00000
     10       3.5736      1.00000
     11       6.5026      1.00000
     12       6.5504      1.00000
     13       7.4518      1.00000
     14       7.4755      1.00000
     15       7.6963      1.00000
     16       7.7953      1.00000
     17       8.5596      1.00000
     18       8.7362      1.00000
     19       8.9605      1.00000
     20       8.9836      1.00000
     21       9.5867      1.01735
     22       9.9372     -0.00085
     23      10.1917     -0.00000
     24      10.9355     -0.00000
     25      11.0264     -0.00000
     26      11.1369     -0.00000
     27      11.2202     -0.00000
     28      11.3008     -0.00000
     29      11.5790     -0.00000
     30      11.6204     -0.00000
     31      12.9769      0.00000
     32      13.4137      0.00000
     33      16.6092      0.00000
     34      17.8608      0.00000
     35      21.3029      0.00000

 k-point    24 :       0.3846    0.3077    0.0000
  band No.  band energies     occupation 
      1     -41.7901      1.00000
      2     -41.7436      1.00000
      3     -41.7264      1.00000
      4     -41.6835      1.00000
      5     -41.6576      1.00000
      6     -41.6450      1.00000
      7     -41.5873      1.00000
      8     -41.5718      1.00000
      9     -41.5278      1.00000
     10       4.1377      1.00000
     11       6.0506      1.00000
     12       6.8633      1.00000
     13       7.4379      1.00000
     14       7.7248      1.00000
     15       7.8467      1.00000
     16       7.9744      1.00000
     17       8.4250      1.00000
     18       8.5060      1.00000
     19       8.7457      1.00000
     20       8.9313      1.00000
     21       9.4815      1.00827
     22      10.0827     -0.00000
     23      10.1017     -0.00000
     24      10.7957     -0.00000
     25      10.9059     -0.00000
     26      10.9219     -0.00000
     27      11.0287     -0.00000
     28      11.2485     -0.00000
     29      11.5191     -0.00000
     30      11.7540      0.00000
     31      12.6384      0.00000
     32      13.7969      0.00000
     33      15.7322      0.00000
     34      18.7271      0.00000
     35      21.5385      0.00000

 k-point    25 :       0.4615    0.3077    0.0000
  band No.  band energies     occupation 
      1     -41.7788      1.00000
      2     -41.7628      1.00000
      3     -41.7153      1.00000
      4     -41.6705      1.00000
      5     -41.6612      1.00000
      6     -41.6572      1.00000
      7     -41.5949      1.00000
      8     -41.5620      1.00000
      9     -41.5319      1.00000
     10       4.7699      1.00000
     11       5.4396      1.00000
     12       7.1553      1.00000
     13       7.3506      1.00000
     14       7.9750      1.00000
     15       8.0020      1.00000
     16       8.1169      1.00000
     17       8.2477      1.00000
     18       8.3400      1.00000
     19       8.5031      1.00000
     20       9.0672      1.00000
     21       9.3190      1.00000
     22      10.0434     -0.00000
     23      10.3006     -0.00000
     24      10.6552     -0.00000
     25      10.7272     -0.00000
     26      10.7866     -0.00000
     27      10.9133     -0.00000
     28      11.2288     -0.00000
     29      11.4789     -0.00000
     30      11.9922      0.00000
     31      12.2838      0.00000
     32      14.3612      0.00000
     33      14.9957      0.00000
     34      19.6695      0.00000
     35      20.6882      0.00000

 k-point    26 :       0.3846    0.3846    0.0000
  band No.  band energies     occupation 
      1     -41.7900      1.00000
      2     -41.7602      1.00000
      3     -41.7085      1.00000
      4     -41.6763      1.00000
      5     -41.6589      1.00000
      6     -41.6532      1.00000
      7     -41.6040      1.00000
      8     -41.5577      1.00000
      9     -41.5264      1.00000
     10       4.6651      1.00000
     11       6.3806      1.00000
     12       6.4678      1.00000
     13       7.2918      1.00000
     14       7.9528      1.00000
     15       7.9704      1.00000
     16       8.0973      1.00000
     17       8.3612      1.00000
     18       8.5622      1.00000
     19       8.6317      1.00000
     20       8.8035      1.00000
     21       9.3637      1.00004
     22       9.9124     -0.00250
     23      10.2186     -0.00000
     24      10.6930     -0.00000
     25      10.8012     -0.00000
     26      10.8080     -0.00000
     27      10.8707     -0.00000
     28      11.1362     -0.00000
     29      11.3249     -0.00000
     30      12.0031      0.00000
     31      12.9018      0.00000
     32      13.3861      0.00000
     33      14.9029      0.00000
     34      19.5535      0.00000
     35      21.8432      0.00000

 k-point    27 :       0.4615    0.3846    0.0000
  band No.  band energies     occupation 
      1     -41.7858      1.00000
      2     -41.7732      1.00000
      3     -41.6943      1.00000
      4     -41.6689      1.00000
      5     -41.6613      1.00000
      6     -41.6611      1.00000
      7     -41.6159      1.00000
      8     -41.5486      1.00000
      9     -41.5274      1.00000
     10       5.2498      1.00000
     11       5.8628      1.00000
     12       6.7830      1.00000
     13       7.0772      1.00000
     14       8.0610      1.00000
     15       8.1457      1.00000
     16       8.1932      1.00000
     17       8.3667      1.00000
     18       8.4526      1.00000
     19       8.4942      1.00000
     20       8.9457      1.00000
     21       9.1877      1.00000
     22       9.8177     -0.03272
     23      10.3810     -0.00000
     24      10.6218     -0.00000
     25      10.6397     -0.00000
     26      10.6918     -0.00000
     27      10.7672     -0.00000
     28      11.0993     -0.00000
     29      11.2232     -0.00000
     30      12.2962      0.00000
     31      12.6283      0.00000
     32      13.7018      0.00000
     33      14.2376      0.00000
     34      20.4601      0.00000
     35      21.4590      0.00000

 k-point    28 :       0.4615    0.4615    0.0000
  band No.  band energies     occupation 
      1     -41.7905      1.00000
      2     -41.7777      1.00000
      3     -41.6740      1.00000
      4     -41.6669      1.00000
      5     -41.6644      1.00000
      6     -41.6616      1.00000
      7     -41.6360      1.00000
      8     -41.5413      1.00000
      9     -41.5253      1.00000
     10       5.7692      1.00000
     11       6.2539      1.00000
     12       6.3571      1.00000
     13       6.7241      1.00000
     14       8.1116      1.00000
     15       8.1435      1.00000
     16       8.3900      1.00000
     17       8.4021      1.00000
     18       8.4708      1.00000
     19       8.6166      1.00000
     20       8.9076      1.00000
     21       9.0428      1.00000
     22       9.6592      0.67519
     23      10.4827     -0.00000
     24      10.5723     -0.00000
     25      10.5868     -0.00000
     26      10.6219     -0.00000
     27      10.6455     -0.00000
     28      11.0295     -0.00000
     29      11.0545     -0.00000
     30      12.6209      0.00000
     31      12.8579      0.00000
     32      13.3659      0.00000
     33      13.6671      0.00000
     34      21.3317      0.00000
     35      22.2850      0.00000

 k-point    29 :       0.0769    0.0769    0.0769
  band No.  band energies     occupation 
      1     -41.8142      1.00000
      2     -41.7989      1.00000
      3     -41.7989      1.00000
      4     -41.6431      1.00000
      5     -41.6431      1.00000
      6     -41.6323      1.00000
      7     -41.5391      1.00000
      8     -41.5216      1.00000
      9     -41.5216      1.00000
     10       1.5261      1.00000
     11       6.2949      1.00000
     12       6.2949      1.00000
     13       6.3386      1.00000
     14       7.0436      1.00000
     15       7.0436      1.00000
     16       7.0510      1.00000
     17       9.2465      1.00000
     18       9.4059      1.00036
     19       9.4059      1.00036
     20      10.7914     -0.00000
     21      10.7914     -0.00000
     22      10.8792     -0.00000
     23      11.1014     -0.00000
     24      11.1014     -0.00000
     25      11.7545      0.00000
     26      11.7545      0.00000
     27      11.8782      0.00000
     28      11.8782      0.00000
     29      12.0557      0.00000
     30      12.2533      0.00000
     31      13.1202      0.00000
     32      13.3141      0.00000
     33      13.3141      0.00000
     34      21.0516      0.00000
     35      21.1386      0.00000

 k-point    30 :       0.1538    0.0769    0.0769
  band No.  band energies     occupation 
      1     -41.8125      1.00000
      2     -41.7921      1.00000
      3     -41.7833      1.00000
      4     -41.6496      1.00000
      5     -41.6449      1.00000
      6     -41.6288      1.00000
      7     -41.5548      1.00000
      8     -41.5262      1.00000
      9     -41.5234      1.00000
     10       1.7529      1.00000
     11       6.2701      1.00000
     12       6.4278      1.00000
     13       6.4723      1.00000
     14       7.1237      1.00000
     15       7.1246      1.00000
     16       7.1381      1.00000
     17       9.1461      1.00000
     18       9.4625      1.00428
     19       9.4653      1.00474
     20      10.4144     -0.00000
     21      10.4842     -0.00000
     22      10.6025     -0.00000
     23      10.8627     -0.00000
     24      10.8757     -0.00000
     25      11.6025     -0.00000
     26      11.6464     -0.00000
     27      11.7692      0.00000
     28      11.8396      0.00000
     29      11.9888      0.00000
     30      12.2221      0.00000
     31      12.7143      0.00000
     32      13.9362      0.00000
     33      13.9849      0.00000
     34      21.1013      0.00000
     35      21.1285      0.00000

 k-point    31 :       0.2308    0.0769    0.0769
  band No.  band energies     occupation 
      1     -41.8050      1.00000
      2     -41.7815      1.00000
      3     -41.7637      1.00000
      4     -41.6575      1.00000
      5     -41.6481      1.00000
      6     -41.6260      1.00000
      7     -41.5750      1.00000
      8     -41.5328      1.00000
      9     -41.5298      1.00000
     10       2.1237      1.00000
     11       6.1448      1.00000
     12       6.6303      1.00000
     13       6.6984      1.00000
     14       7.2566      1.00000
     15       7.2587      1.00000
     16       7.2796      1.00000
     17       8.9801      1.00000
     18       9.5238      1.02460
     19       9.5335      1.02897
     20       9.9208     -0.00176
     21       9.9642     -0.00023
     22      10.1932     -0.00000
     23      10.6498     -0.00000
     24      10.9046     -0.00000
     25      11.4203     -0.00000
     26      11.4531     -0.00000
     27      11.6770     -0.00000
     28      11.6899      0.00000
     29      11.9561      0.00000
     30      12.1695      0.00000
     31      12.1826      0.00000
     32      14.7649      0.00000
     33      14.7896      0.00000
     34      20.9763      0.00000
     35      21.0303      0.00000

 k-point    32 :       0.3077    0.0769    0.0769
  band No.  band energies     occupation 
      1     -41.7930      1.00000
      2     -41.7686      1.00000
      3     -41.7422      1.00000
      4     -41.6666      1.00000
      5     -41.6531      1.00000
      6     -41.6237      1.00000
      7     -41.5973      1.00000
      8     -41.5400      1.00000
      9     -41.5389      1.00000
     10       2.6265      1.00000
     11       5.8469      1.00000
     12       6.8707      1.00000
     13       6.9766      1.00000
     14       7.4384      1.00000
     15       7.4432      1.00000
     16       7.4715      1.00000
     17       8.7649      1.00000
     18       9.2639      1.00000
     19       9.3043      1.00000
     20       9.7649     -0.00054
     21       9.7982     -0.03508
     22       9.8134     -0.03400
     23      10.4766     -0.00000
     24      10.9134     -0.00000
     25      11.1632     -0.00000
     26      11.2410     -0.00000
     27      11.4861     -0.00000
     28      11.6491     -0.00000
     29      11.7013      0.00000
     30      11.8887      0.00000
     31      12.1626      0.00000
     32      15.6432      0.00000
     33      15.6537      0.00000
     34      20.2852      0.00000
     35      20.2885      0.00000

 k-point    33 :       0.3846    0.0769    0.0769
  band No.  band energies     occupation 
      1     -41.7790      1.00000
      2     -41.7555      1.00000
      3     -41.7223      1.00000
      4     -41.6760      1.00000
      5     -41.6581      1.00000
      6     -41.6221      1.00000
      7     -41.6194      1.00000
      8     -41.5479      1.00000
      9     -41.5462      1.00000
     10       3.2415      1.00000
     11       5.3353      1.00000
     12       7.0984      1.00000
     13       7.2531      1.00000
     14       7.6574      1.00000
     15       7.6705      1.00000
     16       7.7114      1.00000
     17       8.5209      1.00000
     18       8.8083      1.00000
     19       8.8631      1.00000
     20       9.5218      1.02367
     21       9.8555     -0.01641
     22       9.9690     -0.00017
     23      10.3996     -0.00000
     24      10.7838     -0.00000
     25      10.9000     -0.00000
     26      11.1258     -0.00000
     27      11.2871     -0.00000
     28      11.3288     -0.00000
     29      11.6484     -0.00000
     30      11.8139      0.00000
     31      12.1552      0.00000
     32      16.5424      0.00000
     33      16.5432      0.00000
     34      19.3689      0.00000
     35      19.3884      0.00000

 k-point    34 :       0.4615    0.0769    0.0769
  band No.  band energies     occupation 
      1     -41.7685      1.00000
      2     -41.7463      1.00000
      3     -41.7106      1.00000
      4     -41.6831      1.00000
      5     -41.6572      1.00000
      6     -41.6382      1.00000
      7     -41.6213      1.00000
      8     -41.5535      1.00000
      9     -41.5498      1.00000
     10       3.9348      1.00000
     11       4.6685      1.00000
     12       7.2428      1.00000
     13       7.4378      1.00000
     14       7.8756      1.00000
     15       7.9061      1.00000
     16       8.0043      1.00000
     17       8.2865      1.00000
     18       8.3924      1.00000
     19       8.5057      1.00000
     20       9.4332      1.00131
     21       9.8468     -0.02018
     22      10.1496     -0.00000
     23      10.5051     -0.00000
     24      10.5782     -0.00000
     25      10.6955     -0.00000
     26      10.9982     -0.00000
     27      11.0656     -0.00000
     28      11.2800     -0.00000
     29      11.6427     -0.00000
     30      11.7629      0.00000
     31      12.1528      0.00000
     32      17.3983      0.00000
     33      17.4181      0.00000
     34      18.4903      0.00000
     35      18.5231      0.00000

 k-point    35 :       0.1538    0.1538    0.0769
  band No.  band energies     occupation 
      1     -41.8144      1.00000
      2     -41.7824      1.00000
      3     -41.7690      1.00000
      4     -41.6571      1.00000
      5     -41.6474      1.00000
      6     -41.6229      1.00000
      7     -41.5724      1.00000
      8     -41.5299      1.00000
      9     -41.5225      1.00000
     10       1.9759      1.00000
     11       6.4065      1.00000
     12       6.4222      1.00000
     13       6.5882      1.00000
     14       7.1929      1.00000
     15       7.1979      1.00000
     16       7.2218      1.00000
     17       9.0627      1.00000
     18       9.4979      1.01345
     19       9.5135      1.01990
     20      10.0817     -0.00000
     21      10.1830     -0.00000
     22      10.2804     -0.00000
     23      10.7042     -0.00000
     24      10.8620     -0.00000
     25      11.4609     -0.00000
     26      11.5421     -0.00000
     27      11.7106      0.00000
     28      11.8072      0.00000
     29      11.8655      0.00000
     30      12.1903      0.00000
     31      13.2209      0.00000
     32      13.4701      0.00000
     33      14.5052      0.00000
     34      20.8850      0.00000
     35      21.5654      0.00000

 k-point    36 :       0.2308    0.1538    0.0769
  band No.  band energies     occupation 
      1     -41.8106      1.00000
      2     -41.7716      1.00000
      3     -41.7497      1.00000
      4     -41.6677      1.00000
      5     -41.6496      1.00000
      6     -41.6173      1.00000
      7     -41.5928      1.00000
      8     -41.5369      1.00000
      9     -41.5254      1.00000
     10       2.3405      1.00000
     11       6.2957      1.00000
     12       6.6345      1.00000
     13       6.7976      1.00000
     14       7.3036      1.00000
     15       7.3210      1.00000
     16       7.3577      1.00000
     17       8.9169      1.00000
     18       9.4683      1.00528
     19       9.5706      1.03259
     20       9.7328      0.11712
     21       9.7884     -0.03154
     22       9.8752     -0.00945
     23      10.5741     -0.00000
     24      10.8840     -0.00000
     25      11.3071     -0.00000
     26      11.3902     -0.00000
     27      11.5675     -0.00000
     28      11.6789     -0.00000
     29      11.8427      0.00000
     30      12.1170      0.00000
     31      12.6850      0.00000
     32      14.0738      0.00000
     33      15.2143      0.00000
     34      19.9876      0.00000
     35      21.4191      0.00000

 k-point    37 :       0.3077    0.1538    0.0769
  band No.  band energies     occupation 
      1     -41.8013      1.00000
      2     -41.7587      1.00000
      3     -41.7311      1.00000
      4     -41.6795      1.00000
      5     -41.6534      1.00000
      6     -41.6152      1.00000
      7     -41.6086      1.00000
      8     -41.5453      1.00000
      9     -41.5320      1.00000
     10       2.8346      1.00000
     11       6.0031      1.00000
     12       6.8982      1.00000
     13       7.0617      1.00000
     14       7.4489      1.00000
     15       7.4887      1.00000
     16       7.5401      1.00000
     17       8.7210      1.00000
     18       9.1122      1.00000
     19       9.2543      1.00000
     20       9.5362      1.03010
     21       9.7158      0.22048
     22       9.7889     -0.03179
     23      10.4462     -0.00000
     24      10.8580     -0.00000
     25      11.1098     -0.00000
     26      11.2297     -0.00000
     27      11.4124     -0.00000
     28      11.5997     -0.00000
     29      11.7439      0.00000
     30      12.0347      0.00000
     31      12.1888      0.00000
     32      14.8122      0.00000
     33      16.0000      0.00000
     34      19.0238      0.00000
     35      20.6512      0.00000

 k-point    38 :       0.3846    0.1538    0.0769
  band No.  band energies     occupation 
      1     -41.7884      1.00000
      2     -41.7453      1.00000
      3     -41.7210      1.00000
      4     -41.6888      1.00000
      5     -41.6584      1.00000
      6     -41.6274      1.00000
      7     -41.6055      1.00000
      8     -41.5536      1.00000
      9     -41.5399      1.00000
     10       3.4387      1.00000
     11       5.4974      1.00000
     12       7.1546      1.00000
     13       7.3369      1.00000
     14       7.6153      1.00000
     15       7.6888      1.00000
     16       7.7581      1.00000
     17       8.4918      1.00000
     18       8.7032      1.00000
     19       8.8544      1.00000
     20       9.3666      1.00004
     21       9.7186      0.20155
     22       9.9501     -0.00046
     23      10.4012     -0.00000
     24      10.7017     -0.00000
     25      10.9056     -0.00000
     26      11.1203     -0.00000
     27      11.2970     -0.00000
     28      11.5054     -0.00000
     29      11.5690     -0.00000
     30      11.8917      0.00000
     31      12.0288      0.00000
     32      15.5620      0.00000
     33      16.7680      0.00000
     34      18.2046      0.00000
     35      19.7186      0.00000

 k-point    39 :       0.4615    0.1538    0.0769
  band No.  band energies     occupation 
      1     -41.7769      1.00000
      2     -41.7343      1.00000
      3     -41.7255      1.00000
      4     -41.6915      1.00000
      5     -41.6604      1.00000
      6     -41.6348      1.00000
      7     -41.6019      1.00000
      8     -41.5594      1.00000
      9     -41.5453      1.00000
     10       4.1194      1.00000
     11       4.8407      1.00000
     12       7.3281      1.00000
     13       7.5204      1.00000
     14       7.7941      1.00000
     15       7.8887      1.00000
     16       7.9799      1.00000
     17       8.2474      1.00000
     18       8.3855      1.00000
     19       8.5478      1.00000
     20       9.3339      1.00001
     21       9.6665      0.61699
     22      10.1233     -0.00000
     23      10.4036     -0.00000
     24      10.5467     -0.00000
     25      10.8220     -0.00000
     26      11.0320     -0.00000
     27      11.0795     -0.00000
     28      11.4497     -0.00000
     29      11.5515     -0.00000
     30      11.7873      0.00000
     31      12.0075      0.00000
     32      16.3030      0.00000
     33      16.9496      0.00000
     34      18.0698      0.00000
     35      18.8299      0.00000

 k-point    40 :       0.2308    0.2308    0.0769
  band No.  band energies     occupation 
      1     -41.8108      1.00000
      2     -41.7610      1.00000
      3     -41.7321      1.00000
      4     -41.6818      1.00000
      5     -41.6498      1.00000
      6     -41.6125      1.00000
      7     -41.6079      1.00000
      8     -41.5448      1.00000
      9     -41.5239      1.00000
     10       2.6946      1.00000
     11       6.5269      1.00000
     12       6.5319      1.00000
     13       6.9890      1.00000
     14       7.3737      1.00000
     15       7.4298      1.00000
     16       7.4846      1.00000
     17       8.8017      1.00000
     18       9.2461      1.00000
     19       9.4738      1.00640
     20       9.4973      1.01325
     21       9.6707      0.58229
     22       9.6792      0.51048
     23      10.4659     -0.00000
     24      10.8944     -0.00000
     25      11.1721     -0.00000
     26      11.3417     -0.00000
     27      11.3968     -0.00000
     28      11.6124     -0.00000
     29      11.7260      0.00000
     30      12.0179      0.00000
     31      13.1350      0.00000
     32      13.4736      0.00000
     33      15.8111      0.00000
     34      18.8711      0.00000
     35      21.5206      0.00000

 k-point    41 :       0.3077    0.2308    0.0769
  band No.  band energies     occupation 
      1     -41.8055      1.00000
      2     -41.7496      1.00000
      3     -41.7177      1.00000
      4     -41.6960      1.00000
      5     -41.6511      1.00000
      6     -41.6290      1.00000
      7     -41.5980      1.00000
      8     -41.5544      1.00000
      9     -41.5268      1.00000
     10       3.1739      1.00000
     11       6.2457      1.00000
     12       6.8163      1.00000
     13       7.2319      1.00000
     14       7.4575      1.00000
     15       7.5787      1.00000
     16       7.6536      1.00000
     17       8.6398      1.00000
     18       8.9300      1.00000
     19       9.1553      1.00000
     20       9.2332      1.00000
     21       9.6503      0.74279
     22       9.8023     -0.03545
     23      10.3461     -0.00000
     24      10.8352     -0.00000
     25      11.0223     -0.00000
     26      11.2003     -0.00000
     27      11.3424     -0.00000
     28      11.5143     -0.00000
     29      11.6276     -0.00000
     30      11.9062      0.00000
     31      12.6551      0.00000
     32      13.9609      0.00000
     33      16.4267      0.00000
     34      17.9633      0.00000
     35      21.1324      0.00000

 k-point    42 :       0.3846    0.2308    0.0769
  band No.  band energies     occupation 
      1     -41.7953      1.00000
      2     -41.7421      1.00000
      3     -41.7186      1.00000
      4     -41.6968      1.00000
      5     -41.6579      1.00000
      6     -41.6354      1.00000
      7     -41.5882      1.00000
      8     -41.5638      1.00000
      9     -41.5328      1.00000
     10       3.7588      1.00000
     11       5.7516      1.00000
     12       7.1105      1.00000
     13       7.4969      1.00000
     14       7.5240      1.00000
     15       7.7537      1.00000
     16       7.8476      1.00000
     17       8.4401      1.00000
     18       8.6139      1.00000
     19       8.8386      1.00000
     20       9.1579      1.00000
     21       9.5917      1.00924
     22       9.9541     -0.00038
     23      10.2825     -0.00000
     24      10.6663     -0.00000
     25      10.8898     -0.00000
     26      11.0433     -0.00000
     27      11.2879     -0.00000
     28      11.4538     -0.00000
     29      11.5791     -0.00000
     30      11.8258      0.00000
     31      12.2334      0.00000
     32      14.5905      0.00000
     33      16.5101      0.00000
     34      17.7869      0.00000
     35      20.1913      0.00000

 k-point    43 :       0.4615    0.2308    0.0769
  band No.  band energies     occupation 
      1     -41.7838      1.00000
      2     -41.7486      1.00000
      3     -41.7171      1.00000
      4     -41.6936      1.00000
      5     -41.6651      1.00000
      6     -41.6348      1.00000
      7     -41.5805      1.00000
      8     -41.5704      1.00000
      9     -41.5385      1.00000
     10       4.4166      1.00000
     11       5.1146      1.00000
     12       7.3519      1.00000
     13       7.5080      1.00000
     14       7.7628      1.00000
     15       7.8929      1.00000
     16       8.0034      1.00000
     17       8.2353      1.00000
     18       8.4161      1.00000
     19       8.5820      1.00000
     20       9.2054      1.00000
     21       9.4860      1.00952
     22      10.1155     -0.00000
     23      10.2456     -0.00000
     24      10.5046     -0.00000
     25      10.8802     -0.00000
     26      10.9490     -0.00000
     27      11.0693     -0.00000
     28      11.4268     -0.00000
     29      11.6987      0.00000
     30      11.7892      0.00000
     31      11.9661      0.00000
     32      15.2389      0.00000
     33      15.9063      0.00000
     34      18.4493      0.00000
     35      19.2985      0.00000

 k-point    44 :       0.3077    0.3077    0.0769
  band No.  band energies     occupation 
      1     -41.8046      1.00000
      2     -41.7445      1.00000
      3     -41.7100      1.00000
      4     -41.7053      1.00000
      5     -41.6469      1.00000
      6     -41.6441      1.00000
      7     -41.5846      1.00000
      8     -41.5655      1.00000
      9     -41.5255      1.00000
     10       3.6316      1.00000
     11       6.5238      1.00000
     12       6.5680      1.00000
     13       7.4005      1.00000
     14       7.5119      1.00000
     15       7.7054      1.00000
     16       7.8047      1.00000
     17       8.5298      1.00000
     18       8.7897      1.00000
     19       8.9767      1.00000
     20       8.9940      1.00000
     21       9.5901      1.01210
     22       9.8691     -0.01135
     23      10.2142     -0.00000
     24      10.7548     -0.00000
     25      10.9167     -0.00000
     26      11.0441     -0.00000
     27      11.3625     -0.00000
     28      11.4094     -0.00000
     29      11.5817     -0.00000
     30      11.7599      0.00000
     31      12.9983      0.00000
     32      13.4162      0.00000
     33      16.3443      0.00000
     34      17.6864      0.00000
     35      21.6484      0.00000

 k-point    45 :       0.3846    0.3077    0.0769
  band No.  band energies     occupation 
      1     -41.7985      1.00000
      2     -41.7525      1.00000
      3     -41.7099      1.00000
      4     -41.6975      1.00000
      5     -41.6581      1.00000
      6     -41.6403      1.00000
      7     -41.5772      1.00000
      8     -41.5713      1.00000
      9     -41.5280      1.00000
     10       4.1879      1.00000
     11       6.0712      1.00000
     12       6.8598      1.00000
     13       7.4007      1.00000
     14       7.7183      1.00000
     15       7.8567      1.00000
     16       7.9743      1.00000
     17       8.4000      1.00000
     18       8.6035      1.00000
     19       8.7914      1.00000
     20       8.9543      1.00000
     21       9.4911      1.01110
     22       9.9499     -0.00047
     23      10.1459     -0.00000
     24      10.6002     -0.00000
     25      10.8328     -0.00000
     26      10.8874     -0.00000
     27      11.2268     -0.00000
     28      11.3298     -0.00000
     29      11.6372     -0.00000
     30      11.7332      0.00000
     31      12.6249      0.00000
     32      13.7946      0.00000
     33      15.6492      0.00000
     34      18.2637      0.00000
     35      20.7808      0.00000

 k-point    46 :       0.4615    0.3077    0.0769
  band No.  band energies     occupation 
      1     -41.7889      1.00000
      2     -41.7667      1.00000
      3     -41.7032      1.00000
      4     -41.6941      1.00000
      5     -41.6675      1.00000
      6     -41.6350      1.00000
      7     -41.5853      1.00000
      8     -41.5619      1.00000
      9     -41.5321      1.00000
     10       4.8103      1.00000
     11       5.4691      1.00000
     12       7.1296      1.00000
     13       7.3129      1.00000
     14       7.9070      1.00000
     15       8.0061      1.00000
     16       8.0906      1.00000
     17       8.2690      1.00000
     18       8.4753      1.00000
     19       8.6006      1.00000
     20       9.0783      1.00000
     21       9.3383      1.00001
     22       9.9871     -0.00006
     23      10.1909     -0.00000
     24      10.4394     -0.00000
     25      10.7864     -0.00000
     26      10.8619     -0.00000
     27      11.0171     -0.00000
     28      11.2911     -0.00000
     29      11.5760     -0.00000
     30      11.9675      0.00000
     31      12.2590      0.00000
     32      14.3463      0.00000
     33      14.9593      0.00000
     34      19.0279      0.00000
     35      19.8897      0.00000

 k-point    47 :       0.3846    0.3846    0.0769
  band No.  band energies     occupation 
      1     -41.7974      1.00000
      2     -41.7672      1.00000
      3     -41.7006      1.00000
      4     -41.6958      1.00000
      5     -41.6598      1.00000
      6     -41.6396      1.00000
      7     -41.5911      1.00000
      8     -41.5576      1.00000
      9     -41.5265      1.00000
     10       4.7044      1.00000
     11       6.3797      1.00000
     12       6.4618      1.00000
     13       7.2402      1.00000
     14       7.9522      1.00000
     15       7.9756      1.00000
     16       8.1105      1.00000
     17       8.3656      1.00000
     18       8.6436      1.00000
     19       8.7081      1.00000
     20       8.8430      1.00000
     21       9.3804      1.00009
     22       9.8527     -0.01757
     23      10.1427     -0.00000
     24      10.4961     -0.00000
     25      10.7165     -0.00000
     26      10.7845     -0.00000
     27      11.1138     -0.00000
     28      11.2162     -0.00000
     29      11.4662     -0.00000
     30      11.9771      0.00000
     31      12.8857      0.00000
     32      13.3603      0.00000
     33      14.8528      0.00000
     34      18.9468      0.00000
     35      21.4147      0.00000

 k-point    48 :       0.4615    0.3846    0.0769
  band No.  band energies     occupation 
      1     -41.7919      1.00000
      2     -41.7804      1.00000
      3     -41.6952      1.00000
      4     -41.6942      1.00000
      5     -41.6614      1.00000
      6     -41.6350      1.00000
      7     -41.6026      1.00000
      8     -41.5485      1.00000
      9     -41.5275      1.00000
     10       5.2753      1.00000
     11       5.8728      1.00000
     12       6.7533      1.00000
     13       7.0284      1.00000
     14       8.0807      1.00000
     15       8.1286      1.00000
     16       8.1834      1.00000
     17       8.3590      1.00000
     18       8.5818      1.00000
     19       8.6033      1.00000
     20       8.9750      1.00000
     21       9.2135      1.00000
     22       9.7720     -0.01401
     23      10.2190     -0.00000
     24      10.3706     -0.00000
     25      10.6149     -0.00000
     26      10.8152     -0.00000
     27      10.9512     -0.00000
     28      11.1659     -0.00000
     29      11.3638     -0.00000
     30      12.2676      0.00000
     31      12.6006      0.00000
     32      13.6722      0.00000
     33      14.2004      0.00000
     34      19.7101      0.00000
     35      20.5749      0.00000

 k-point    49 :       0.4615    0.4615    0.0769
  band No.  band energies     occupation 
      1     -41.7922      1.00000
      2     -41.7887      1.00000
      3     -41.6941      1.00000
      4     -41.6939      1.00000
      5     -41.6479      1.00000
      6     -41.6345      1.00000
      7     -41.6199      1.00000
      8     -41.5413      1.00000
      9     -41.5253      1.00000
     10       5.7760      1.00000
     11       6.2431      1.00000
     12       6.3403      1.00000
     13       6.6875      1.00000
     14       8.1534      1.00000
     15       8.1814      1.00000
     16       8.2860      1.00000
     17       8.4469      1.00000
     18       8.6073      1.00000
     19       8.7009      1.00000
     20       8.9482      1.00000
     21       9.0775      1.00000
     22       9.6140      0.94698
     23      10.2593     -0.00000
     24      10.3123     -0.00000
     25      10.4853     -0.00000
     26      10.8270     -0.00000
     27      10.8904     -0.00000
     28      11.0900     -0.00000
     29      11.2077     -0.00000
     30      12.5900      0.00000
     31      12.8272      0.00000
     32      13.3291      0.00000
     33      13.6294      0.00000
     34      20.4605      0.00000
     35      21.2957      0.00000

 k-point    50 :       0.1538    0.1538    0.1538
  band No.  band energies     occupation 
      1     -41.8195      1.00000
      2     -41.7637      1.00000
      3     -41.7637      1.00000
      4     -41.6562      1.00000
      5     -41.6562      1.00000
      6     -41.6167      1.00000
      7     -41.5924      1.00000
      8     -41.5260      1.00000
      9     -41.5260      1.00000
     10       2.1946      1.00000
     11       6.5365      1.00000
     12       6.5365      1.00000
     13       6.5857      1.00000
     14       7.2601      1.00000
     15       7.2601      1.00000
     16       7.2977      1.00000
     17       8.9816      1.00000
     18       9.5425      1.03250
     19       9.5425      1.03250
     20       9.8083     -0.03505
     21       9.9753     -0.00012
     22       9.9753     -0.00012
     23      10.7340     -0.00000
     24      10.7340     -0.00000
     25      11.3505     -0.00000
     26      11.3505     -0.00000
     27      11.5520     -0.00000
     28      11.8349      0.00000
     29      11.8349      0.00000
     30      12.2295      0.00000
     31      13.6538      0.00000
     32      13.8810      0.00000
     33      13.8810      0.00000
     34      21.3271      0.00000
     35      21.5044      0.00000

 k-point    51 :       0.2308    0.1538    0.1538
  band No.  band energies     occupation 
      1     -41.8188      1.00000
      2     -41.7553      1.00000
      3     -41.7446      1.00000
      4     -41.6668      1.00000
      5     -41.6553      1.00000
      6     -41.6141      1.00000
      7     -41.6102      1.00000
      8     -41.5312      1.00000
      9     -41.5273      1.00000
     10       2.5519      1.00000
     11       6.4324      1.00000
     12       6.7354      1.00000
     13       6.7913      1.00000
     14       7.3593      1.00000
     15       7.3694      1.00000
     16       7.4239      1.00000
     17       8.8451      1.00000
     18       9.4347      1.00139
     19       9.5106      1.01859
     20       9.6377      0.82757
     21       9.6667      0.61558
     22       9.6813      0.49276
     23      10.5822     -0.00000
     24      10.7440     -0.00000
     25      11.1989     -0.00000
     26      11.2547     -0.00000
     27      11.3748     -0.00000
     28      11.7388      0.00000
     29      11.8579      0.00000
     30      12.1863      0.00000
     31      13.0279      0.00000
     32      14.3735      0.00000
     33      14.4452      0.00000
     34      20.3195      0.00000
     35      20.4329      0.00000

 k-point    52 :       0.3077    0.1538    0.1538
  band No.  band energies     occupation 
      1     -41.8124      1.00000
      2     -41.7445      1.00000
      3     -41.7303      1.00000
      4     -41.6786      1.00000
      5     -41.6584      1.00000
      6     -41.6273      1.00000
      7     -41.6042      1.00000
      8     -41.5373      1.00000
      9     -41.5340      1.00000
     10       3.0357      1.00000
     11       6.1401      1.00000
     12       6.9769      1.00000
     13       7.0653      1.00000
     14       7.4815      1.00000
     15       7.5144      1.00000
     16       7.5932      1.00000
     17       8.6637      1.00000
     18       9.0769      1.00000
     19       9.1713      1.00000
     20       9.3935      1.00019
     21       9.6957      0.37315
     22       9.7317      0.12312
     23      10.4592     -0.00000
     24      10.6590     -0.00000
     25      11.0510     -0.00000
     26      11.1475     -0.00000
     27      11.3068     -0.00000
     28      11.6374     -0.00000
     29      11.8413      0.00000
     30      12.1043      0.00000
     31      12.3478      0.00000
     32      15.0427      0.00000
     33      15.0724      0.00000
     34      19.3501      0.00000
     35      19.4461      0.00000

 k-point    53 :       0.3846    0.1538    0.1538
  band No.  band energies     occupation 
      1     -41.8018      1.00000
      2     -41.7320      1.00000
      3     -41.7271      1.00000
      4     -41.6912      1.00000
      5     -41.6672      1.00000
      6     -41.6240      1.00000
      7     -41.5992      1.00000
      8     -41.5445      1.00000
      9     -41.5430      1.00000
     10       3.6264      1.00000
     11       5.6399      1.00000
     12       7.2257      1.00000
     13       7.3579      1.00000
     14       7.5892      1.00000
     15       7.6698      1.00000
     16       7.7887      1.00000
     17       8.4540      1.00000
     18       8.7327      1.00000
     19       8.8534      1.00000
     20       9.2720      1.00000
     21       9.6822      0.48550
     22       9.8564     -0.01606
     23      10.4132     -0.00000
     24      10.4824     -0.00000
     25      10.9452     -0.00000
     26      11.0170     -0.00000
     27      11.3645     -0.00000
     28      11.5659     -0.00000
     29      11.7843      0.00000
     30      11.7992      0.00000
     31      12.0213      0.00000
     32      15.6936      0.00000
     33      15.7026      0.00000
     34      18.5147      0.00000
     35      18.6078      0.00000

 k-point    54 :       0.4615    0.1538    0.1538
  band No.  band energies     occupation 
      1     -41.7918      1.00000
      2     -41.7327      1.00000
      3     -41.7187      1.00000
      4     -41.7044      1.00000
      5     -41.6715      1.00000
      6     -41.6158      1.00000
      7     -41.5962      1.00000
      8     -41.5538      1.00000
      9     -41.5466      1.00000
     10       4.2912      1.00000
     11       4.9963      1.00000
     12       7.4270      1.00000
     13       7.6130      1.00000
     14       7.6223      1.00000
     15       7.7571      1.00000
     16       7.9747      1.00000
     17       8.2616      1.00000
     18       8.4736      1.00000
     19       8.6604      1.00000
     20       9.2672      1.00000
     21       9.6130      0.95077
     22      10.0009     -0.00003
     23      10.2965     -0.00000
     24      10.4020     -0.00000
     25      10.9268     -0.00000
     26      11.0082     -0.00000
     27      11.3515     -0.00000
     28      11.4435     -0.00000
     29      11.5363     -0.00000
     30      11.7476      0.00000
     31      11.9717      0.00000
     32      16.1780      0.00000
     33      16.2297      0.00000
     34      17.9093      0.00000
     35      18.0235      0.00000

 k-point    55 :       0.2308    0.2308    0.1538
  band No.  band energies     occupation 
      1     -41.8219      1.00000
      2     -41.7456      1.00000
      3     -41.7334      1.00000
      4     -41.6729      1.00000
      5     -41.6527      1.00000
      6     -41.6369      1.00000
      7     -41.6021      1.00000
      8     -41.5349      1.00000
      9     -41.5260      1.00000
     10       2.8967      1.00000
     11       6.6379      1.00000
     12       6.6430      1.00000
     13       6.9491      1.00000
     14       7.4308      1.00000
     15       7.4689      1.00000
     16       7.5396      1.00000
     17       8.7286      1.00000
     18       9.2234      1.00000
     19       9.3629      1.00003
     20       9.3912      1.00017
     21       9.6433      0.79191
     22       9.6543      0.71297
     23      10.4763     -0.00000
     24      10.6597     -0.00000
     25      11.0973     -0.00000
     26      11.1580     -0.00000
     27      11.2335     -0.00000
     28      11.7243      0.00000
     29      11.8163      0.00000
     30      12.1594      0.00000
     31      13.4071      0.00000
     32      13.6585      0.00000
     33      14.8728      0.00000
     34      19.2581      0.00000
     35      20.8146      0.00000

 k-point    56 :       0.3077    0.2308    0.1538
  band No.  band energies     occupation 
      1     -41.8193      1.00000
      2     -41.7405      1.00000
      3     -41.7251      1.00000
      4     -41.6832      1.00000
      5     -41.6597      1.00000
      6     -41.6377      1.00000
      7     -41.5938      1.00000
      8     -41.5417      1.00000
      9     -41.5285      1.00000
     10       3.3627      1.00000
     11       6.3473      1.00000
     12       6.8880      1.00000
     13       7.1622      1.00000
     14       7.5170      1.00000
     15       7.6065      1.00000
     16       7.6980      1.00000
     17       8.5824      1.00000
     18       8.9758      1.00000
     19       9.1104      1.00000
     20       9.1955      1.00000
     21       9.6477      0.76160
     22       9.7255      0.15826
     23      10.3387     -0.00000
     24      10.5484     -0.00000
     25      10.9719     -0.00000
     26      11.0164     -0.00000
     27      11.3094     -0.00000
     28      11.6315     -0.00000
     29      11.7717      0.00000
     30      12.0695      0.00000
     31      12.7575      0.00000
     32      14.0999      0.00000
     33      15.3569      0.00000
     34      18.3495      0.00000
     35      19.8853      0.00000

 k-point    57 :       0.3846    0.2308    0.1538
  band No.  band energies     occupation 
      1     -41.8118      1.00000
      2     -41.7417      1.00000
      3     -41.7231      1.00000
      4     -41.6903      1.00000
      5     -41.6727      1.00000
      6     -41.6221      1.00000
      7     -41.5859      1.00000
      8     -41.5499      1.00000
      9     -41.5346      1.00000
     10       3.9300      1.00000
     11       5.8587      1.00000
     12       7.1334      1.00000
     13       7.3557      1.00000
     14       7.6003      1.00000
     15       7.7571      1.00000
     16       7.8759      1.00000
     17       8.4255      1.00000
     18       8.7334      1.00000
     19       8.8894      1.00000
     20       9.1412      1.00000
     21       9.6017      0.98679
     22       9.8199     -0.03196
     23      10.2441     -0.00000
     24      10.3903     -0.00000
     25      10.8402     -0.00000
     26      10.9895     -0.00000
     27      11.4360     -0.00000
     28      11.5416     -0.00000
     29      11.6838      0.00000
     30      11.9384      0.00000
     31      12.2029      0.00000
     32      14.6544      0.00000
     33      15.6930      0.00000
     34      17.7835      0.00000
     35      19.0176      0.00000

 k-point    58 :       0.4615    0.2308    0.1538
  band No.  band energies     occupation 
      1     -41.8037      1.00000
      2     -41.7498      1.00000
      3     -41.7211      1.00000
      4     -41.6926      1.00000
      5     -41.6793      1.00000
      6     -41.6096      1.00000
      7     -41.5795      1.00000
      8     -41.5577      1.00000
      9     -41.5402      1.00000
     10       4.5663      1.00000
     11       5.2410      1.00000
     12       7.3269      1.00000
     13       7.4389      1.00000
     14       7.6697      1.00000
     15       7.8507      1.00000
     16       8.0369      1.00000
     17       8.2901      1.00000
     18       8.5689      1.00000
     19       8.7572      1.00000
     20       9.1812      1.00000
     21       9.5100      1.01836
     22       9.9434     -0.00064
     23      10.1320     -0.00000
     24      10.2858     -0.00000
     25      10.7608     -0.00000
     26      11.1143     -0.00000
     27      11.3755     -0.00000
     28      11.4969     -0.00000
     29      11.6474     -0.00000
     30      11.7999      0.00000
     31      11.9529      0.00000
     32      15.1881      0.00000
     33      15.6163      0.00000
     34      17.7869      0.00000
     35      18.3020      0.00000

 k-point    59 :       0.3077    0.3077    0.1538
  band No.  band energies     occupation 
      1     -41.8207      1.00000
      2     -41.7462      1.00000
      3     -41.7206      1.00000
      4     -41.6942      1.00000
      5     -41.6589      1.00000
      6     -41.6334      1.00000
      7     -41.5823      1.00000
      8     -41.5495      1.00000
      9     -41.5265      1.00000
     10       3.8025      1.00000
     11       6.5753      1.00000
     12       6.6092      1.00000
     13       7.2455      1.00000
     14       7.6185      1.00000
     15       7.7457      1.00000
     16       7.8489      1.00000
     17       8.4984      1.00000
     18       8.8824      1.00000
     19       9.0166      1.00000
     20       9.0265      1.00000
     21       9.5981      0.99594
     22       9.7560      0.02219
     23      10.1752     -0.00000
     24      10.4440     -0.00000
     25      10.7830     -0.00000
     26      10.9748     -0.00000
     27      11.4360     -0.00000
     28      11.5631     -0.00000
     29      11.6795     -0.00000
     30      11.9726      0.00000
     31      13.0740      0.00000
     32      13.4302      0.00000
     33      15.5067      0.00000
     34      17.7134      0.00000
     35      20.4138      0.00000

 k-point    60 :       0.3846    0.3077    0.1538
  band No.  band energies     occupation 
      1     -41.8172      1.00000
      2     -41.7575      1.00000
      3     -41.7206      1.00000
      4     -41.7014      1.00000
      5     -41.6597      1.00000
      6     -41.6199      1.00000
      7     -41.5709      1.00000
      8     -41.5586      1.00000
      9     -41.5287      1.00000
     10       4.3347      1.00000
     11       6.1250      1.00000
     12       6.8335      1.00000
     13       7.2406      1.00000
     14       7.7768      1.00000
     15       7.9082      1.00000
     16       8.0149      1.00000
     17       8.4150      1.00000
     18       8.7569      1.00000
     19       8.9084      1.00000
     20       9.0103      1.00000
     21       9.5165      1.02125
     22       9.8017     -0.03543
     23      10.0636     -0.00000
     24      10.3050     -0.00000
     25      10.6396     -0.00000
     26      10.9799     -0.00000
     27      11.4690     -0.00000
     28      11.5097     -0.00000
     29      11.6737     -0.00000
     30      11.8449      0.00000
     31      12.5916      0.00000
     32      13.7812      0.00000
     33      15.2716      0.00000
     34      17.6996      0.00000
     35      19.5780      0.00000

 k-point    61 :       0.4615    0.3077    0.1538
  band No.  band energies     occupation 
      1     -41.8118      1.00000
      2     -41.7683      1.00000
      3     -41.7219      1.00000
      4     -41.7037      1.00000
      5     -41.6602      1.00000
      6     -41.6082      1.00000
      7     -41.5674      1.00000
      8     -41.5615      1.00000
      9     -41.5328      1.00000
     10       4.9269      1.00000
     11       5.5519      1.00000
     12       7.0300      1.00000
     13       7.1695      1.00000
     14       7.8879      1.00000
     15       8.0543      1.00000
     16       8.1352      1.00000
     17       8.3332      1.00000
     18       8.6677      1.00000
     19       8.8187      1.00000
     20       9.1004      1.00000
     21       9.3926      1.00018
     22       9.8681     -0.01169
     23       9.9997     -0.00003
     24      10.1849     -0.00000
     25      10.5625     -0.00000
     26      11.0962     -0.00000
     27      11.3079     -0.00000
     28      11.4250     -0.00000
     29      11.7393      0.00000
     30      11.9012      0.00000
     31      12.1879      0.00000
     32      14.2763      0.00000
     33      14.7922      0.00000
     34      18.1309      0.00000
     35      18.8058      0.00000

 k-point    62 :       0.3846    0.3846    0.1538
  band No.  band energies     occupation 
      1     -41.8180      1.00000
      2     -41.7723      1.00000
      3     -41.7205      1.00000
      4     -41.7111      1.00000
      5     -41.6458      1.00000
      6     -41.6152      1.00000
      7     -41.5694      1.00000
      8     -41.5574      1.00000
      9     -41.5268      1.00000
     10       4.8180      1.00000
     11       6.3705      1.00000
     12       6.4393      1.00000
     13       7.0772      1.00000
     14       7.9877      1.00000
     15       8.0589      1.00000
     16       8.1752      1.00000
     17       8.4107      1.00000
     18       8.7949      1.00000
     19       8.8934      1.00000
     20       8.9414      1.00000
     21       9.4230      1.00082
     22       9.7338      0.11219
     23       9.9789     -0.00010
     24      10.2071     -0.00000
     25      10.4676     -0.00000
     26      10.9827     -0.00000
     27      11.3755     -0.00000
     28      11.3984     -0.00000
     29      11.7066      0.00000
     30      11.9024      0.00000
     31      12.8380      0.00000
     32      13.2803      0.00000
     33      14.6454      0.00000
     34      18.0899      0.00000
     35      20.1796      0.00000

 k-point    63 :       0.4615    0.3846    0.1538
  band No.  band energies     occupation 
      1     -41.8164      1.00000
      2     -41.7822      1.00000
      3     -41.7220      1.00000
      4     -41.7149      1.00000
      5     -41.6386      1.00000
      6     -41.6076      1.00000
      7     -41.5796      1.00000
      8     -41.5485      1.00000
      9     -41.5277      1.00000
     10       5.3471      1.00000
     11       5.8979      1.00000
     12       6.6653      1.00000
     13       6.8874      1.00000
     14       8.1162      1.00000
     15       8.2024      1.00000
     16       8.2632      1.00000
     17       8.4118      1.00000
     18       8.7730      1.00000
     19       8.8436      1.00000
     20       9.0442      1.00000
     21       9.2823      1.00000
     22       9.6713      0.57757
     23       9.9912     -0.00005
     24      10.1071     -0.00000
     25      10.3728     -0.00000
     26      11.0668     -0.00000
     27      11.2291     -0.00000
     28      11.3215     -0.00000
     29      11.6003     -0.00000
     30      12.1832      0.00000
     31      12.5169      0.00000
     32      13.5729      0.00000
     33      14.0627      0.00000
     34      18.6754      0.00000
     35      19.4220      0.00000

 k-point    64 :       0.4615    0.4615    0.1538
  band No.  band energies     occupation 
      1     -41.8181      1.00000
      2     -41.7899      1.00000
      3     -41.7222      1.00000
      4     -41.7211      1.00000
      5     -41.6204      1.00000
      6     -41.6067      1.00000
      7     -41.5936      1.00000
      8     -41.5412      1.00000
      9     -41.5253      1.00000
     10       5.7931      1.00000
     11       6.2091      1.00000
     12       6.2918      1.00000
     13       6.5854      1.00000
     14       8.2728      1.00000
     15       8.2875      1.00000
     16       8.3194      1.00000
     17       8.5101      1.00000
     18       8.8433      1.00000
     19       8.8694      1.00000
     20       9.0500      1.00000
     21       9.1672      1.00000
     22       9.5069      1.01702
     23      10.0140     -0.00001
     24      10.0545     -0.00000
     25      10.2440     -0.00000
     26      11.0951     -0.00000
     27      11.1719     -0.00000
     28      11.2304     -0.00000
     29      11.4659     -0.00000
     30      12.4951      0.00000
     31      12.7312      0.00000
     32      13.2136      0.00000
     33      13.5045      0.00000
     34      19.3253      0.00000
     35      20.0780      0.00000

 k-point    65 :       0.2308    0.2308    0.2308
  band No.  band energies     occupation 
      1     -41.8288      1.00000
      2     -41.7354      1.00000
      3     -41.7354      1.00000
      4     -41.6648      1.00000
      5     -41.6555      1.00000
      6     -41.6555      1.00000
      7     -41.5946      1.00000
      8     -41.5294      1.00000
      9     -41.5294      1.00000
     10       3.2257      1.00000
     11       6.7875      1.00000
     12       6.7875      1.00000
     13       6.8240      1.00000
     14       7.5379      1.00000
     15       7.5379      1.00000
     16       7.6444      1.00000
     17       8.6307      1.00000
     18       9.1236      1.00000
     19       9.2396      1.00000
     20       9.2396      1.00000
     21       9.6412      0.80585
     22       9.6412      0.80579
     23      10.4245     -0.00000
     24      10.4245     -0.00000
     25      10.9215     -0.00000
     26      11.1483     -0.00000
     27      11.1483     -0.00000
     28      11.7927      0.00000
     29      11.7927      0.00000
     30      12.1983      0.00000
     31      13.7350      0.00000
     32      13.9605      0.00000
     33      13.9605      0.00000
     34      19.6277      0.00000
     35      19.8274      0.00000

 k-point    66 :       0.3077    0.2308    0.2308
  band No.  band energies     occupation 
      1     -41.8300      1.00000
      2     -41.7378      1.00000
      3     -41.7340      1.00000
      4     -41.6884      1.00000
      5     -41.6576      1.00000
      6     -41.6331      1.00000
      7     -41.5867      1.00000
      8     -41.5338      1.00000
      9     -41.5303      1.00000
     10       3.6685      1.00000
     11       6.4894      1.00000
     12       6.9436      1.00000
     13       6.9860      1.00000
     14       7.6336      1.00000
     15       7.6876      1.00000
     16       7.8004      1.00000
     17       8.5311      1.00000
     18       8.9849      1.00000
     19       9.0851      1.00000
     20       9.1307      1.00000
     21       9.6500      0.74505
     22       9.6583      0.68267
     23      10.2431     -0.00000
     24      10.3068     -0.00000
     25      10.7368     -0.00000
     26      11.0961     -0.00000
     27      11.2814     -0.00000
     28      11.7038      0.00000
     29      11.8033      0.00000
     30      12.1507      0.00000
     31      12.9947      0.00000
     32      14.2671      0.00000
     33      14.3228      0.00000
     34      18.7489      0.00000
     35      18.8800      0.00000

 k-point    67 :       0.3846    0.2308    0.2308
  band No.  band energies     occupation 
      1     -41.8263      1.00000
      2     -41.7429      1.00000
      3     -41.7398      1.00000
      4     -41.7018      1.00000
      5     -41.6588      1.00000
      6     -41.6092      1.00000
      7     -41.5795      1.00000
      8     -41.5385      1.00000
      9     -41.5372      1.00000
     10       4.2049      1.00000
     11       6.0153      1.00000
     12       7.0685      1.00000
     13       7.1235      1.00000
     14       7.7311      1.00000
     15       7.8641      1.00000
     16       7.9741      1.00000
     17       8.4383      1.00000
     18       8.8303      1.00000
     19       8.9727      1.00000
     20       9.1085      1.00000
     21       9.6025      0.98463
     22       9.7153      0.22421
     23      10.1331     -0.00000
     24      10.1505     -0.00000
     25      10.6101     -0.00000
     26      11.1349     -0.00000
     27      11.4434     -0.00000
     28      11.6059     -0.00000
     29      11.7707      0.00000
     30      12.0597      0.00000
     31      12.2763      0.00000
     32      14.6668      0.00000
     33      14.6727      0.00000
     34      18.0321      0.00000
     35      18.1679      0.00000

 k-point    68 :       0.4615    0.2308    0.2308
  band No.  band energies     occupation 
      1     -41.8212      1.00000
      2     -41.7540      1.00000
      3     -41.7410      1.00000
      4     -41.7058      1.00000
      5     -41.6592      1.00000
      6     -41.5907      1.00000
      7     -41.5747      1.00000
      8     -41.5465      1.00000
      9     -41.5420      1.00000
     10       4.8027      1.00000
     11       5.4348      1.00000
     12       7.1375      1.00000
     13       7.1977      1.00000
     14       7.7902      1.00000
     15       7.9980      1.00000
     16       8.1221      1.00000
     17       8.3483      1.00000
     18       8.7223      1.00000
     19       8.9225      1.00000
     20       9.1460      1.00000
     21       9.5203      1.02299
     22       9.8064     -0.03529
     23       9.9990     -0.00003
     24      10.0788     -0.00000
     25      10.5415     -0.00000
     26      11.3319     -0.00000
     27      11.5434     -0.00000
     28      11.5859     -0.00000
     29      11.7190      0.00000
     30      11.7254      0.00000
     31      11.9761      0.00000
     32      14.8925      0.00000
     33      14.9426      0.00000
     34      17.6145      0.00000
     35      17.7655      0.00000

 k-point    69 :       0.3077    0.3077    0.2308
  band No.  band energies     occupation 
      1     -41.8355      1.00000
      2     -41.7471      1.00000
      3     -41.7361      1.00000
      4     -41.7102      1.00000
      5     -41.6409      1.00000
      6     -41.6212      1.00000
      7     -41.5778      1.00000
      8     -41.5370      1.00000
      9     -41.5282      1.00000
     10       4.0772      1.00000
     11       6.6279      1.00000
     12       6.6476      1.00000
     13       6.9948      1.00000
     14       7.7794      1.00000
     15       7.8400      1.00000
     16       7.9640      1.00000
     17       8.4969      1.00000
     18       8.9615      1.00000
     19       9.0634      1.00000
     20       9.0746      1.00000
     21       9.6070      0.97152
     22       9.6646      0.63214
     23      10.0630     -0.00000
     24      10.1667     -0.00000
     25      10.5346     -0.00000
     26      11.1371     -0.00000
     27      11.3818     -0.00000
     28      11.6881      0.00000
     29      11.7712      0.00000
     30      12.1228      0.00000
     31      13.2183      0.00000
     32      13.4724      0.00000
     33      14.4698      0.00000
     34      18.0230      0.00000
     35      19.3232      0.00000

 k-point    70 :       0.3846    0.3077    0.2308
  band No.  band energies     occupation 
      1     -41.8361      1.00000
      2     -41.7590      1.00000
      3     -41.7413      1.00000
      4     -41.7217      1.00000
      5     -41.6349      1.00000
      6     -41.6010      1.00000
      7     -41.5686      1.00000
      8     -41.5431      1.00000
      9     -41.5301      1.00000
     10       4.5673      1.00000
     11       6.1934      1.00000
     12       6.7648      1.00000
     13       6.9783      1.00000
     14       7.9235      1.00000
     15       8.0351      1.00000
     16       8.1429      1.00000
     17       8.4695      1.00000
     18       8.9079      1.00000
     19       9.0465      1.00000
     20       9.0733      1.00000
     21       9.5512      1.03481
     22       9.6809      0.49635
     23       9.9265     -0.00138
     24      10.0408     -0.00000
     25      10.3948     -0.00000
     26      11.1897     -0.00000
     27      11.5672     -0.00000
     28      11.6051     -0.00000
     29      11.7185      0.00000
     30      12.0269      0.00000
     31      12.5725      0.00000
     32      13.7367      0.00000
     33      14.5153      0.00000
     34      17.6130      0.00000
     35      18.5850      0.00000

 k-point    71 :       0.4615    0.3077    0.2308
  band No.  band energies     occupation 
      1     -41.8345      1.00000
      2     -41.7687      1.00000
      3     -41.7461      1.00000
      4     -41.7244      1.00000
      5     -41.6331      1.00000
      6     -41.5848      1.00000
      7     -41.5613      1.00000
      8     -41.5499      1.00000
      9     -41.5342      1.00000
     10       5.1067      1.00000
     11       5.6728      1.00000
     12       6.8595      1.00000
     13       6.9331      1.00000
     14       8.0110      1.00000
     15       8.2085      1.00000
     16       8.2607      1.00000
     17       8.4310      1.00000
     18       8.8597      1.00000
     19       9.0385      1.00000
     20       9.1154      1.00000
     21       9.4692      1.00547
     22       9.7393      0.08543
     23       9.8325     -0.02676
     24       9.9459     -0.00057
     25      10.3243     -0.00000
     26      11.3568     -0.00000
     27      11.5373     -0.00000
     28      11.5983     -0.00000
     29      11.7613      0.00000
     30      11.9103      0.00000
     31      12.0904      0.00000
     32      14.0834      0.00000
     33      14.3715      0.00000
     34      17.6091      0.00000
     35      17.9990      0.00000

 k-point    72 :       0.3846    0.3846    0.2308
  band No.  band energies     occupation 
      1     -41.8413      1.00000
      2     -41.7735      1.00000
      3     -41.7426      1.00000
      4     -41.7352      1.00000
      5     -41.6170      1.00000
      6     -41.5934      1.00000
      7     -41.5568      1.00000
      8     -41.5502      1.00000
      9     -41.5274      1.00000
     10       4.9937      1.00000
     11       6.3431      1.00000
     12       6.3970      1.00000
     13       6.8339      1.00000
     14       8.1255      1.00000
     15       8.2187      1.00000
     16       8.3349      1.00000
     17       8.5100      1.00000
     18       8.9649      1.00000
     19       9.0577      1.00000
     20       9.0883      1.00000
     21       9.4756      1.00681
     22       9.6333      0.85412
     23       9.8027     -0.03546
     24       9.9509     -0.00044
     25      10.2283     -0.00000
     26      11.2136     -0.00000
     27      11.5389     -0.00000
     28      11.6228     -0.00000
     29      11.7919      0.00000
     30      11.9282      0.00000
     31      12.7661      0.00000
     32      13.1427      0.00000
     33      14.1717      0.00000
     34      17.6001      0.00000
     35      19.1231      0.00000

 k-point    73 :       0.4615    0.3846    0.2308
  band No.  band energies     occupation 
      1     -41.8430      1.00000
      2     -41.7822      1.00000
      3     -41.7467      1.00000
      4     -41.7387      1.00000
      5     -41.6097      1.00000
      6     -41.5835      1.00000
      7     -41.5581      1.00000
      8     -41.5483      1.00000
      9     -41.5281      1.00000
     10       5.4532      1.00000
     11       5.9289      1.00000
     12       6.5342      1.00000
     13       6.6859      1.00000
     14       8.2433      1.00000
     15       8.3841      1.00000
     16       8.4455      1.00000
     17       8.5489      1.00000
     18       8.9747      1.00000
     19       9.0869      1.00000
     20       9.1130      1.00000
     21       9.3749      1.00007
     22       9.5782      1.02731
     23       9.7888     -0.03173
     24       9.8763     -0.00911
     25      10.1393     -0.00000
     26      11.3153     -0.00000
     27      11.4617     -0.00000
     28      11.5103     -0.00000
     29      11.8180      0.00000
     30      12.0513      0.00000
     31      12.3808      0.00000
     32      13.3778      0.00000
     33      13.7624      0.00000
     34      17.9122      0.00000
     35      18.4834      0.00000

 k-point    74 :       0.4615    0.4615    0.2308
  band No.  band energies     occupation 
      1     -41.8470      1.00000
      2     -41.7896      1.00000
      3     -41.7470      1.00000
      4     -41.7462      1.00000
      5     -41.5918      1.00000
      6     -41.5822      1.00000
      7     -41.5688      1.00000
      8     -41.5412      1.00000
      9     -41.5253      1.00000
     10       5.8139      1.00000
     11       6.1538      1.00000
     12       6.2211      1.00000
     13       6.4417      1.00000
     14       8.3936      1.00000
     15       8.5211      1.00000
     16       8.5439      1.00000
     17       8.6778      1.00000
     18       9.0568      1.00000
     19       9.0841      1.00000
     20       9.1584      1.00000
     21       9.2785      1.00000
     22       9.3996      1.00026
     23       9.8098     -0.03481
     24       9.8386     -0.02394
     25      10.0203     -0.00001
     26      11.3331     -0.00000
     27      11.4060     -0.00000
     28      11.4228     -0.00000
     29      11.7132      0.00000
     30      12.3335      0.00000
     31      12.5614      0.00000
     32      13.0084      0.00000
     33      13.2643      0.00000
     34      18.4061      0.00000
     35      19.0468      0.00000

 k-point    75 :       0.3077    0.3077    0.3077
  band No.  band energies     occupation 
      1     -41.8458      1.00000
      2     -41.7492      1.00000
      3     -41.7492      1.00000
      4     -41.7333      1.00000
      5     -41.6128      1.00000
      6     -41.6128      1.00000
      7     -41.5712      1.00000
      8     -41.5308      1.00000
      9     -41.5308      1.00000
     10       4.4399      1.00000
     11       6.6532      1.00000
     12       6.6652      1.00000
     13       6.6652      1.00000
     14       7.9852      1.00000
     15       7.9852      1.00000
     16       8.1512      1.00000
     17       8.5210      1.00000
     18       9.0174      1.00000
     19       9.1097      1.00000
     20       9.1097      1.00000
     21       9.6105      0.95978
     22       9.6105      0.95973
     23       9.9414     -0.00070
     24       9.9414     -0.00070
     25      10.3277     -0.00000
     26      11.3380     -0.00000
     27      11.3380     -0.00000
     28      11.7562      0.00000
     29      11.7562      0.00000
     30      12.1662      0.00000
     31      13.3521      0.00000
     32      13.5526      0.00000
     33      13.5526      0.00000
     34      18.3713      0.00000
     35      18.5729      0.00000

 k-point    76 :       0.3846    0.3077    0.3077
  band No.  band energies     occupation 
      1     -41.8511      1.00000
      2     -41.7603      1.00000
      3     -41.7586      1.00000
      4     -41.7432      1.00000
      5     -41.6082      1.00000
      6     -41.5869      1.00000
      7     -41.5637      1.00000
      8     -41.5340      1.00000
      9     -41.5314      1.00000
     10       4.8680      1.00000
     11       6.2597      1.00000
     12       6.6647      1.00000
     13       6.6652      1.00000
     14       8.1342      1.00000
     15       8.2177      1.00000
     16       8.3515      1.00000
     17       8.5557      1.00000
     18       9.0390      1.00000
     19       9.1233      1.00000
     20       9.1611      1.00000
     21       9.5845      1.02047
     22       9.5951      1.00262
     23       9.7907     -0.03276
     24       9.8306     -0.02757
     25      10.1837     -0.00000
     26      11.3803     -0.00000
     27      11.5309     -0.00000
     28      11.6793     -0.00000
     29      11.7662      0.00000
     30      12.1179      0.00000
     31      12.6407      0.00000
     32      13.6240      0.00000
     33      13.6476      0.00000
     34      17.8122      0.00000
     35      17.9660      0.00000

 k-point    77 :       0.4615    0.3077    0.3077
  band No.  band energies     occupation 
      1     -41.8528      1.00000
      2     -41.7712      1.00000
      3     -41.7636      1.00000
      4     -41.7443      1.00000
      5     -41.6062      1.00000
      6     -41.5683      1.00000
      7     -41.5581      1.00000
      8     -41.5370      1.00000
      9     -41.5369      1.00000
     10       5.3311      1.00000
     11       5.8136      1.00000
     12       6.6609      1.00000
     13       6.6630      1.00000
     14       8.2253      1.00000
     15       8.4111      1.00000
     16       8.4739      1.00000
     17       8.5767      1.00000
     18       9.0304      1.00000
     19       9.1235      1.00000
     20       9.2066      1.00000
     21       9.5372      1.03050
     22       9.6143      0.94573
     23       9.7242      0.16613
     24       9.7404      0.08052
     25      10.1117     -0.00000
     26      11.5717     -0.00000
     27      11.6280     -0.00000
     28      11.6735     -0.00000
     29      11.7459      0.00000
     30      12.0111      0.00000
     31      12.0429      0.00000
     32      13.7117      0.00000
     33      13.7370      0.00000
     34      17.4921      0.00000
     35      17.6556      0.00000

 k-point    78 :       0.3846    0.3846    0.3077
  band No.  band energies     occupation 
      1     -41.8609      1.00000
      2     -41.7738      1.00000
      3     -41.7607      1.00000
      4     -41.7575      1.00000
      5     -41.5890      1.00000
      6     -41.5761      1.00000
      7     -41.5554      1.00000
      8     -41.5367      1.00000
      9     -41.5284      1.00000
     10       5.2142      1.00000
     11       6.3002      1.00000
     12       6.3437      1.00000
     13       6.5598      1.00000
     14       8.3464      1.00000
     15       8.4287      1.00000
     16       8.5762      1.00000
     17       8.6613      1.00000
     18       9.1298      1.00000
     19       9.1625      1.00000
     20       9.2282      1.00000
     21       9.5259      1.02558
     22       9.5907      1.01095
     23       9.6509      0.73819
     24       9.7367      0.09752
     25      10.0273     -0.00001
     26      11.4360     -0.00000
     27      11.6635     -0.00000
     28      11.6748     -0.00000
     29      11.7427      0.00000
     30      12.0867      0.00000
     31      12.6963      0.00000
     32      12.9628      0.00000
     33      13.4747      0.00000
     34      17.5426      0.00000
     35      18.3072      0.00000

 k-point    79 :       0.4615    0.3846    0.3077
  band No.  band energies     occupation 
      1     -41.8655      1.00000
      2     -41.7821      1.00000
      3     -41.7667      1.00000
      4     -41.7591      1.00000
      5     -41.5834      1.00000
      6     -41.5639      1.00000
      7     -41.5481      1.00000
      8     -41.5415      1.00000
      9     -41.5289      1.00000
     10       5.5801      1.00000
     11       5.9615      1.00000
     12       6.3877      1.00000
     13       6.4668      1.00000
     14       8.4584      1.00000
     15       8.6267      1.00000
     16       8.7114      1.00000
     17       8.7586      1.00000
     18       9.1488      1.00000
     19       9.1656      1.00000
     20       9.2865      1.00000
     21       9.4636      1.00447
     22       9.5274      1.02628
     23       9.6367      0.83428
     24       9.6954      0.37499
     25       9.9435     -0.00063
     26      11.5377     -0.00000
     27      11.6106     -0.00000
     28      11.6834      0.00000
     29      11.8793      0.00000
     30      12.0021      0.00000
     31      12.2181      0.00000
     32      13.0750      0.00000
     33      13.2783      0.00000
     34      17.5292      0.00000
     35      17.8598      0.00000

 k-point    80 :       0.4615    0.4615    0.3077
  band No.  band energies     occupation 
      1     -41.8720      1.00000
      2     -41.7892      1.00000
      3     -41.7671      1.00000
      4     -41.7667      1.00000
      5     -41.5676      1.00000
      6     -41.5625      1.00000
      7     -41.5483      1.00000
      8     -41.5411      1.00000
      9     -41.5255      1.00000
     10       5.8369      1.00000
     11       6.0895      1.00000
     12       6.1455      1.00000
     13       6.2878      1.00000
     14       8.6041      1.00000
     15       8.8239      1.00000
     16       8.8586      1.00000
     17       8.9243      1.00000
     18       9.1866      1.00000
     19       9.2451      1.00000
     20       9.2894      1.00000
     21       9.3740      1.00006
     22       9.3755      1.00007
     23       9.6738      0.55652
     24       9.6879      0.43695
     25       9.8389     -0.02381
     26      11.5185     -0.00000
     27      11.5766     -0.00000
     28      11.6184     -0.00000
     29      11.9188      0.00000
     30      12.1155      0.00000
     31      12.3212      0.00000
     32      12.7163      0.00000
     33      12.8966      0.00000
     34      17.7882      0.00000
     35      18.2608      0.00000

 k-point    81 :       0.3846    0.3846    0.3846
  band No.  band energies     occupation 
      1     -41.8746      1.00000
      2     -41.7745      1.00000
      3     -41.7734      1.00000
      4     -41.7734      1.00000
      5     -41.5659      1.00000
      6     -41.5659      1.00000
      7     -41.5517      1.00000
      8     -41.5301      1.00000
      9     -41.5301      1.00000
     10       5.4614      1.00000
     11       6.2423      1.00000
     12       6.2960      1.00000
     13       6.2960      1.00000
     14       8.6127      1.00000
     15       8.6127      1.00000
     16       8.8345      1.00000
     17       8.8414      1.00000
     18       9.2657      1.00000
     19       9.2678      1.00000
     20       9.2678      1.00000
     21       9.5385      1.03103
     22       9.5385      1.03104
     23       9.6025      0.98479
     24       9.6025      0.98477
     25       9.8798     -0.00818
     26      11.6204     -0.00000
     27      11.6204     -0.00000
     28      11.7325      0.00000
     29      11.7325      0.00000
     30      12.1402      0.00000
     31      12.6082      0.00000
     32      12.8044      0.00000
     33      12.8044      0.00000
     34      17.6616      0.00000
     35      17.8848      0.00000

 k-point    82 :       0.4615    0.3846    0.3846
  band No.  band energies     occupation 
      1     -41.8816      1.00000
      2     -41.7829      1.00000
      3     -41.7799      1.00000
      4     -41.7737      1.00000
      5     -41.5627      1.00000
      6     -41.5511      1.00000
      7     -41.5466      1.00000
      8     -41.5320      1.00000
      9     -41.5295      1.00000
     10       5.7197      1.00000
     11       6.0000      1.00000
     12       6.2402      1.00000
     13       6.2684      1.00000
     14       8.7033      1.00000
     15       8.8517      1.00000
     16       8.9851      1.00000
     17       9.0053      1.00000
     18       9.2079      1.00000
     19       9.3360      1.00001
     20       9.3787      1.00008
     21       9.4647      1.00465
     22       9.4701      1.00563
     23       9.6040      0.98050
     24       9.6259      0.89421
     25       9.7981     -0.03508
     26      11.6703     -0.00000
     27      11.7062      0.00000
     28      11.7262      0.00000
     29      11.7853      0.00000
     30      12.1000      0.00000
     31      12.1123      0.00000
     32      12.7119      0.00000
     33      12.7357      0.00000
     34      17.4432      0.00000
     35      17.6191      0.00000

 k-point    83 :       0.4615    0.4615    0.3846
  band No.  band energies     occupation 
      1     -41.8900      1.00000
      2     -41.7889      1.00000
      3     -41.7813      1.00000
      4     -41.7812      1.00000
      5     -41.5503      1.00000
      6     -41.5485      1.00000
      7     -41.5411      1.00000
      8     -41.5337      1.00000
      9     -41.5257      1.00000
     10       5.8670      1.00000
     11       6.0345      1.00000
     12       6.0835      1.00000
     13       6.1497      1.00000
     14       8.8446      1.00000
     15       9.0184      1.00000
     16       9.1498      1.00000
     17       9.2150      1.00000
     18       9.2742      1.00000
     19       9.3668      1.00004
     20       9.3766      1.00008
     21       9.4526      1.00294
     22       9.4630      1.00437
     23       9.6390      0.81991
     24       9.6439      0.78788
     25       9.7112      0.25300
     26      11.6454     -0.00000
     27      11.6971      0.00000
     28      11.7199      0.00000
     29      11.8856      0.00000
     30      12.0614      0.00000
     31      12.0643      0.00000
     32      12.3926      0.00000
     33      12.4677      0.00000
     34      17.4700      0.00000
     35      17.7611      0.00000

 k-point    84 :       0.4615    0.4615    0.4615
  band No.  band energies     occupation 
      1     -41.8993      1.00000
      2     -41.7890      1.00000
      3     -41.7885      1.00000
      4     -41.7885      1.00000
      5     -41.5414      1.00000
      6     -41.5414      1.00000
      7     -41.5407      1.00000
      8     -41.5261      1.00000
      9     -41.5261      1.00000
     10       5.9042      1.00000
     11       6.0059      1.00000
     12       6.0491      1.00000
     13       6.0491      1.00000
     14       9.0147      1.00000
     15       9.0147      1.00000
     16       9.2718      1.00000
     17       9.3392      1.00001
     18       9.3392      1.00001
     19       9.5033      1.01556
     20       9.5033      1.01556
     21       9.5041      1.01588
     22       9.6414      0.80421
     23       9.6444      0.78412
     24       9.6594      0.67386
     25       9.6594      0.67381
     26      11.7108      0.00000
     27      11.7108      0.00000
     28      11.7327      0.00000
     29      11.7328      0.00000
     30      11.8604      0.00000
     31      12.1258      0.00000
     32      12.1893      0.00000
     33      12.1893      0.00000
     34      17.3452      0.00000
     35      17.6111      0.00000


--------------------------------------------------------------------------------------------------------


 soft charge-density along one line, spin component            1
         0         1         2         3         4         5         6         7         8         9
 total charge-density along one line
 
 soft charge-density along one line, spin component            2
         0         1         2         3         4         5         6         7         8         9
 total charge-density along one line
 
 pseudopotential strength for first ion, spin component:            1
-44.977  -0.000   0.000   7.620   0.000  -0.000   0.000  -0.000
 -0.000 -44.926  -0.000   0.000   7.599   0.000  -0.000   0.000
  0.000  -0.000 -44.977  -0.000   0.000   7.620   0.000  -0.000
  7.620   0.000  -0.000   5.629   0.000  -0.000  -0.000   0.000
  0.000   7.599   0.000   0.000   5.634   0.000   0.000  -0.000
 -0.000   0.000   7.620  -0.000   0.000   5.629  -0.000   0.000
  0.000  -0.000   0.000  -0.000   0.000  -0.000  -2.104  -0.000
 -0.000   0.000  -0.000   0.000  -0.000   0.000  -0.000  -2.071
 -0.000   0.000  -0.000   0.000   0.000   0.000  -0.000  -0.000
 -0.000   0.000  -0.000   0.000  -0.000   0.000  -0.000  -0.000
 -0.000   0.000   0.000   0.000  -0.000  -0.000  -0.000   0.000
  0.000  -0.000   0.000  -0.000   0.000  -0.000  -2.617  -0.000
 -0.000   0.000  -0.000   0.000  -0.000   0.000  -0.000  -2.585
 -0.000   0.000  -0.000   0.000   0.000   0.000  -0.000  -0.000
 -0.000   0.000  -0.000   0.000  -0.000   0.000  -0.000  -0.000
 -0.000   0.000   0.000   0.000  -0.000  -0.000  -0.000   0.000
 -0.000   0.000  -0.000  -0.000   0.000  -0.000  -0.000   0.000
 -0.000   0.000  -0.000  -0.000   0.000  -0.000  -0.000   0.000
 pseudopotential strength for first ion, spin component:            2
-42.736   0.000   0.000   6.676  -0.000  -0.000   0.000  -0.000
  0.000 -42.719   0.000  -0.000   6.667  -0.000  -0.000   0.000
  0.000   0.000 -42.736  -0.000  -0.000   6.676   0.000  -0.000
  6.676  -0.000  -0.000   5.889  -0.000  -0.000  -0.000   0.000
 -0.000   6.667  -0.000  -0.000   5.891  -0.000   0.000  -0.000
 -0.000  -0.000   6.676  -0.000  -0.000   5.889  -0.000   0.000
  0.000  -0.000   0.000  -0.000   0.000  -0.000  -0.321   0.000
 -0.000   0.000  -0.000   0.000  -0.000   0.000   0.000  -0.322
 -0.000   0.000  -0.000   0.000   0.000   0.000  -0.000  -0.000
 -0.000   0.000  -0.000   0.000  -0.000   0.000   0.000   0.000
 -0.000   0.000   0.000   0.000  -0.000  -0.000  -0.000  -0.000
  0.000  -0.000   0.000  -0.000   0.000  -0.000  -0.863   0.000
 -0.000   0.000  -0.000   0.000  -0.000   0.000   0.000  -0.864
 -0.000   0.000  -0.000   0.000   0.000   0.000  -0.000  -0.000
 -0.000   0.000  -0.000   0.000  -0.000   0.000   0.000   0.000
 -0.000   0.000   0.000   0.000  -0.000  -0.000  -0.000  -0.000
 -0.000   0.000  -0.000  -0.000   0.000  -0.000  -0.000  -0.000
 -0.000   0.000  -0.000  -0.000   0.000  -0.000  -0.000  -0.000
 total augmentation occupancy for first ion, spin component:            1
  1.992  -0.000  -0.000  -0.026   0.000   0.000   0.000   0.000   0.000   0.000   0.000   0.000   0.000   0.000   0.000   0.000
 -0.000   1.992  -0.000  -0.000  -0.025  -0.000   0.000   0.000   0.000   0.000   0.000   0.000   0.000   0.000   0.000   0.000
 -0.000  -0.000   1.992  -0.000   0.000  -0.026   0.000   0.000   0.000   0.000   0.000   0.000   0.000   0.000   0.000   0.000
 -0.026  -0.000  -0.000   0.196  -0.000   0.000   0.000   0.000   0.000   0.000   0.000   0.000   0.000   0.000   0.000   0.000
 -0.000  -0.025  -0.000  -0.000   0.197  -0.000   0.000   0.000   0.000   0.000   0.000   0.000   0.000   0.000   0.000   0.000
 -0.000   0.000  -0.026   0.000   0.000   0.196   0.000   0.000   0.000   0.000   0.000   0.000   0.000   0.000   0.000   0.000
  0.000   0.000   0.000   0.000   0.000   0.000   2.821   0.000   0.000   0.000   0.000  -1.738  -0.000   0.000  -0.000  -0.000
  0.000   0.000   0.000   0.000   0.000   0.000   0.000   2.781   0.000   0.000   0.000   0.000  -1.679   0.000  -0.000   0.000
  0.000   0.000   0.000   0.000   0.000   0.000  -0.000   0.000   3.167  -0.000   0.000   0.000  -0.000  -1.951  -0.000  -0.000
  0.000   0.000   0.000   0.000   0.000   0.000   0.000   0.000  -0.000   2.781  -0.000  -0.000   0.000  -0.000  -1.679  -0.000
  0.000   0.000   0.000   0.000   0.000   0.000   0.000   0.000   0.000  -0.000   3.142   0.000  -0.000   0.000   0.000  -1.894
  0.000   0.000   0.000   0.000   0.000   0.000  -1.738   0.000   0.000  -0.000   0.000   2.020   0.000  -0.000  -0.000   0.000
  0.000   0.000   0.000   0.000   0.000   0.000  -0.000  -1.679   0.000   0.000  -0.000   0.000   1.965  -0.000  -0.000  -0.000
  0.000   0.000   0.000   0.000   0.000   0.000  -0.000   0.000  -1.951   0.000  -0.000   0.000  -0.000   2.001   0.000   0.000
  0.000   0.000   0.000   0.000   0.000   0.000   0.000  -0.000   0.000  -1.679   0.000  -0.000  -0.000  -0.000   1.965   0.000
  0.000   0.000   0.000   0.000   0.000   0.000   0.000  -0.000  -0.000   0.000  -1.894   0.000   0.000  -0.000  -0.000   1.892
  0.000   0.000   0.000   0.000   0.000   0.000   0.000  -0.000  -0.004  -0.000   0.000  -0.000  -0.000   0.025  -0.000  -0.000
  0.000   0.000   0.000   0.000   0.000   0.000  -0.000   0.000  -0.003  -0.000   0.000   0.000   0.000   0.001   0.000   0.000
 total augmentation occupancy for first ion, spin component:            2
 -0.002  -0.000   0.000  -0.009  -0.000   0.000   0.000   0.000   0.000   0.000   0.000   0.000   0.000   0.000   0.000   0.000
 -0.000  -0.002   0.000  -0.000  -0.010  -0.000   0.000   0.000   0.000   0.000   0.000   0.000   0.000   0.000   0.000   0.000
  0.000   0.000  -0.002  -0.000  -0.000  -0.009   0.000   0.000   0.000   0.000   0.000   0.000   0.000   0.000   0.000   0.000
 -0.009  -0.000  -0.000  -0.015  -0.000   0.000   0.000   0.000   0.000   0.000   0.000   0.000   0.000   0.000   0.000   0.000
  0.000  -0.010  -0.000   0.000  -0.012  -0.000   0.000   0.000   0.000   0.000   0.000   0.000   0.000   0.000   0.000   0.000
 -0.000  -0.000  -0.009   0.000   0.000  -0.015   0.000   0.000   0.000   0.000   0.000   0.000   0.000   0.000   0.000   0.000
  0.000   0.000   0.000   0.000   0.000   0.000   2.296  -0.000   0.000  -0.000   0.000  -0.904   0.000  -0.000   0.000   0.000
  0.000   0.000   0.000   0.000   0.000   0.000   0.000   2.258  -0.000   0.000  -0.000   0.000  -0.941   0.000  -0.000  -0.000
  0.000   0.000   0.000   0.000   0.000   0.000  -0.000  -0.000   2.563  -0.000   0.000  -0.000  -0.000  -0.983  -0.000  -0.000
  0.000   0.000   0.000   0.000   0.000   0.000  -0.000   0.000  -0.000   2.258  -0.000   0.000   0.000   0.000  -0.941   0.000
  0.000   0.000   0.000   0.000   0.000   0.000  -0.000  -0.000  -0.000   0.000   2.550  -0.000  -0.000  -0.000  -0.000  -0.999
  0.000   0.000   0.000   0.000   0.000   0.000  -0.904   0.000   0.000   0.000   0.000   0.080   0.000  -0.000   0.000   0.000
  0.000   0.000   0.000   0.000   0.000   0.000  -0.000  -0.941   0.000   0.000   0.000  -0.000   0.163  -0.000  -0.000  -0.000
  0.000   0.000   0.000   0.000   0.000   0.000   0.000   0.000  -0.983   0.000  -0.000  -0.000  -0.000   0.131   0.000   0.000
  0.000   0.000   0.000   0.000   0.000   0.000  -0.000   0.000   0.000  -0.941  -0.000   0.000  -0.000  -0.000   0.163   0.000
  0.000   0.000   0.000   0.000   0.000   0.000  -0.000   0.000  -0.000   0.000  -0.999   0.000   0.000   0.000   0.000   0.199
  0.000   0.000   0.000   0.000   0.000   0.000  -0.000   0.000  -0.007   0.000  -0.000   0.000   0.000  -0.004  -0.000  -0.000
  0.000   0.000   0.000   0.000   0.000   0.000   0.000   0.000  -0.003   0.000   0.000   0.000  -0.000   0.001  -0.000  -0.000


------------------------ aborting loop because EDIFF is reached ----------------------------------------


    CHARGE:  cpu time      0.5099: real time      0.5098
    FORLOC:  cpu time      0.0018: real time      0.0018
    FORNL :  cpu time      2.2955: real time      2.2949
    STRESS:  cpu time      6.8065: real time      6.8048
    FORCOR:  cpu time      0.0078: real time      0.0078
    FORHAR:  cpu time      0.0014: real time      0.0014
    MIXING:  cpu time      0.0047: real time      0.0047
    OFIELD:  cpu time      0.0000: real time      0.0000

  FORCE on cell =-STRESS in cart. coord.  units (eV):
  Direction    XX          YY          ZZ          XY          YZ          ZX
  --------------------------------------------------------------------------------------
  Alpha Z   350.86544   350.86544   350.86544
  Ewald   -2026.95436 -2026.95436 -2026.95436    -0.00000     0.00000    -0.00000
  Hartree   616.85380   616.85380   616.85380    -0.00000    -0.00000    -0.00000
  E(xc)    -316.37141  -316.37141  -316.37141     0.00000    -0.00000     0.00000
  Local     379.85842   379.85842   379.85842     0.00000    -0.00000     0.00000
  n-local   -84.17136   -89.05801   -86.30492     5.10023     3.89298     2.80810
  augment   583.60231   583.60231   583.60233     0.00000     0.00001     0.00001
  Kinetic   500.88148   496.35074   501.51756     3.68322     1.11295     0.50112
  Fock        0.00000     0.00000     0.00000     0.00000     0.00000     0.00000
  -------------------------------------------------------------------------------------
  Total       0.92604     0.92604     0.92604     0.00000     0.00000    -0.00000
  in kB      32.33630    32.33630    32.33630     0.00000     0.00000    -0.00000
  external pressure =       32.34 kB  Pullay stress =        0.00 kB


 VOLUME and BASIS-vectors are now :
 -----------------------------------------------------------------------------
  energy-cutoff  :      520.00
  volume of cell :       45.88
      direct lattice vectors                 reciprocal lattice vectors
     3.580000000  0.000000000  0.000000000     0.279329609  0.000000000  0.000000000
     0.000000000  3.580000000  0.000000000     0.000000000  0.279329609  0.000000000
     0.000000000  0.000000000  3.580000000     0.000000000  0.000000000  0.279329609

  length of vectors
     3.580000000  3.580000000  3.580000000     0.279329609  0.279329609  0.279329609


 FORCES acting on ions
    electron-ion (+dipol)            ewald-force                    non-local-force                 convergence-correction
 -----------------------------------------------------------------------------------------------
   0.101E-11 0.786E-11 0.504E-11   -.477E-14 0.693E-14 -.330E-13   -.270E-23 0.000E+00 0.000E+00   -.505E-14 0.529E-14 -.228E-13
   0.102E-11 -.648E-13 0.167E-10   0.121E-13 -.733E-14 0.221E-13   0.127E-23 0.000E+00 0.000E+00   0.901E-14 -.187E-13 -.128E-13
   -.665E-13 0.102E-11 0.992E-12   -.217E-13 0.147E-13 0.225E-13   0.353E-24 0.000E+00 0.000E+00   0.116E-13 0.352E-14 -.119E-13
   -.398E-13 -.525E-13 -.571E-13   0.174E-13 -.157E-13 -.970E-14   0.389E-23 0.000E+00 0.000E+00   -.762E-14 -.111E-13 -.158E-13
 -----------------------------------------------------------------------------------------------
   0.192E-11 0.876E-11 0.227E-10   0.305E-14 -.140E-14 0.192E-14   0.282E-23 0.000E+00 0.000E+00   0.797E-14 -.210E-13 -.634E-13
 
 
 POSITION                                       TOTAL-FORCE (eV/Angst)
 -----------------------------------------------------------------------------------
      1.79000      1.79000      0.00000        -0.000000      0.000000      0.000000
      1.79000      0.00000      1.79000         0.000000      0.000000      0.000000
      0.00000      1.79000      1.79000        -0.000000      0.000000      0.000000
      0.00000      0.00000      0.00000        -0.000000      0.000000      0.000000
 -----------------------------------------------------------------------------------
    total drift:                                0.000000      0.000000      0.000000


--------------------------------------------------------------------------------------------------------



  FREE ENERGIE OF THE ION-ELECTRON SYSTEM (eV)
  ---------------------------------------------------
  free  energy   TOTEN  =       -31.42237839 eV

  energy  without entropy=      -31.42222368  energy(sigma->0) =      -31.42232682
 


--------------------------------------------------------------------------------------------------------


    POTLOK:  cpu time      0.4701: real time      0.4700


--------------------------------------------------------------------------------------------------------


     LOOP+:  cpu time    160.9557: real time    160.9177
    4ORBIT:  cpu time      0.0000: real time      0.0000

 total amount of memory used by VASP MPI-rank0   201319. kBytes
=======================================================================

   base                                    :      30000. kBytes
   nonlr-proj                              :       4144. kBytes
   fftplans                                :      26164. kBytes
   grid                                    :      16231. kBytes
   one-center                              :        124. kBytes
   wavefun                                 :     124656. kBytes
 
  
  
 General timing and accounting informations for this job:
 ========================================================
  
                  Total CPU time used (sec):      163.528
                            User time (sec):      162.845
                          System time (sec):        0.683
                         Elapsed time (sec):      163.472
  
                   Maximum memory used (kb):     1724976.
                   Average memory used (kb):          N/A
  
                          Minor page faults:       398686
                          Major page faults:            0
                 Voluntary context switches:         3393
