B2 FeCo 2x2x2 four-state state4_mm, Fe-Co pair
1.0
    5.7140000000    0.0000000000    0.0000000000
    0.0000000000    5.7140000000    0.0000000000
    0.0000000000    0.0000000000    5.7140000000
   Fe   Co
   8   8
Direct
    0.0000000000    0.0000000000    0.0000000000
    0.0000000000    0.0000000000    0.5000000000
    0.0000000000    0.5000000000    0.0000000000
    0.0000000000    0.5000000000    0.5000000000
    0.5000000000    0.0000000000    0.0000000000
    0.5000000000    0.0000000000    0.5000000000
    0.5000000000    0.5000000000    0.0000000000
    0.5000000000    0.5000000000    0.5000000000
    0.2500000000    0.2500000000    0.2500000000
    0.2500000000    0.2500000000    0.7500000000
    0.2500000000    0.7500000000    0.2500000000
    0.2500000000    0.7500000000    0.7500000000
    0.7500000000    0.2500000000    0.2500000000
    0.7500000000    0.2500000000    0.7500000000
    0.7500000000    0.7500000000    0.2500000000
    0.7500000000    0.7500000000    0.7500000000
