[LOG_CAT_ML] You must specify a valid HCA device by setting:
-x HCOLL_MAIN_IB=<dev_name:port> or -x UCX_NET_DEVICES=<dev_name:port>.
If no device was specified for HCOLL (or the calling library), automatic device detection will be run.
In case of unfounded HCA device please contact your system administrator.
[LOG_CAT_ML] You must specify a valid HCA device by setting:
-x HCOLL_MAIN_IB=<dev_name:port> or -x UCX_NET_DEVICES=<dev_name:port>.
If no device was specified for HCOLL (or the calling library), automatic device detection will be run.
In case of unfounded HCA device please contact your system administrator.
[LOG_CAT_ML] You must specify a valid HCA device by setting:
-x HCOLL_MAIN_IB=<dev_name:port> or -x UCX_NET_DEVICES=<dev_name:port>.
If no device was specified for HCOLL (or the calling library), automatic device detection will be run.
In case of unfounded HCA device please contact your system administrator.
[LOG_CAT_ML] You must specify a valid HCA device by setting:
-x HCOLL_MAIN_IB=<dev_name:port> or -x UCX_NET_DEVICES=<dev_name:port>.
If no device was specified for HCOLL (or the calling library), automatic device detection will be run.
In case of unfounded HCA device please contact your system administrator.
[student3-ThinkStation-P3-Tower:840112] Error: ../../../../../ompi/mca/coll/hcoll/coll_hcoll_module.c:310 - mca_coll_hcoll_comm_query() Hcol library init failed
[LOG_CAT_ML] You must specify a valid HCA device by setting:
-x HCOLL_MAIN_IB=<dev_name:port> or -x UCX_NET_DEVICES=<dev_name:port>.
If no device was specified for HCOLL (or the calling library), automatic device detection will be run.
In case of unfounded HCA device please contact your system administrator.
[LOG_CAT_ML] You must specify a valid HCA device by setting:
-x HCOLL_MAIN_IB=<dev_name:port> or -x UCX_NET_DEVICES=<dev_name:port>.
If no device was specified for HCOLL (or the calling library), automatic device detection will be run.
In case of unfounded HCA device please contact your system administrator.
[LOG_CAT_ML] You must specify a valid HCA device by setting:
-x HCOLL_MAIN_IB=<dev_name:port> or -x UCX_NET_DEVICES=<dev_name:port>.
If no device was specified for HCOLL (or the calling library), automatic device detection will be run.
In case of unfounded HCA device please contact your system administrator.
[LOG_CAT_ML] You must specify a valid HCA device by setting:
-x HCOLL_MAIN_IB=<dev_name:port> or -x UCX_NET_DEVICES=<dev_name:port>.
If no device was specified for HCOLL (or the calling library), automatic device detection will be run.
In case of unfounded HCA device please contact your system administrator.
[student3-ThinkStation-P3-Tower:840110] Error: ../../../../../ompi/mca/coll/hcoll/coll_hcoll_module.c:310 - mca_coll_hcoll_comm_query() Hcol library init failed
[student3-ThinkStation-P3-Tower:840114] Error: ../../../../../ompi/mca/coll/hcoll/coll_hcoll_module.c:310 - mca_coll_hcoll_comm_query() Hcol library init failed
[student3-ThinkStation-P3-Tower:840105] Error: ../../../../../ompi/mca/coll/hcoll/coll_hcoll_module.c:310 - mca_coll_hcoll_comm_query() Hcol library init failed
[student3-ThinkStation-P3-Tower:840116] Error: ../../../../../ompi/mca/coll/hcoll/coll_hcoll_module.c:310 - mca_coll_hcoll_comm_query() Hcol library init failed
[student3-ThinkStation-P3-Tower:840106] Error: ../../../../../ompi/mca/coll/hcoll/coll_hcoll_module.c:310 - mca_coll_hcoll_comm_query() Hcol library init failed
[student3-ThinkStation-P3-Tower:840108] Error: ../../../../../ompi/mca/coll/hcoll/coll_hcoll_module.c:310 - mca_coll_hcoll_comm_query() Hcol library init failed
[student3-ThinkStation-P3-Tower:840107] Error: ../../../../../ompi/mca/coll/hcoll/coll_hcoll_module.c:310 - mca_coll_hcoll_comm_query() Hcol library init failed
[LOG_CAT_ML] You must specify a valid HCA device by setting:
-x HCOLL_MAIN_IB=<dev_name:port> or -x UCX_NET_DEVICES=<dev_name:port>.
If no device was specified for HCOLL (or the calling library), automatic device detection will be run.
In case of unfounded HCA device please contact your system administrator.
[LOG_CAT_ML] You must specify a valid HCA device by setting:
-x HCOLL_MAIN_IB=<dev_name:port> or -x UCX_NET_DEVICES=<dev_name:port>.
If no device was specified for HCOLL (or the calling library), automatic device detection will be run.
In case of unfounded HCA device please contact your system administrator.
[LOG_CAT_ML] You must specify a valid HCA device by setting:
-x HCOLL_MAIN_IB=<dev_name:port> or -x UCX_NET_DEVICES=<dev_name:port>.
If no device was specified for HCOLL (or the calling library), automatic device detection will be run.
In case of unfounded HCA device please contact your system administrator.
[LOG_CAT_ML] You must specify a valid HCA device by setting:
-x HCOLL_MAIN_IB=<dev_name:port> or -x UCX_NET_DEVICES=<dev_name:port>.
If no device was specified for HCOLL (or the calling library), automatic device detection will be run.
In case of unfounded HCA device please contact your system administrator.
[LOG_CAT_ML] You must specify a valid HCA device by setting:
-x HCOLL_MAIN_IB=<dev_name:port> or -x UCX_NET_DEVICES=<dev_name:port>.
If no device was specified for HCOLL (or the calling library), automatic device detection will be run.
In case of unfounded HCA device please contact your system administrator.
[student3-ThinkStation-P3-Tower:840139] Error: ../../../../../ompi/mca/coll/hcoll/coll_hcoll_module.c:310 - mca_coll_hcoll_comm_query() Hcol library init failed
[LOG_CAT_ML] You must specify a valid HCA device by setting:
-x HCOLL_MAIN_IB=<dev_name:port> or -x UCX_NET_DEVICES=<dev_name:port>.
If no device was specified for HCOLL (or the calling library), automatic device detection will be run.
In case of unfounded HCA device please contact your system administrator.
[LOG_CAT_ML] You must specify a valid HCA device by setting:
-x HCOLL_MAIN_IB=<dev_name:port> or -x UCX_NET_DEVICES=<dev_name:port>.
If no device was specified for HCOLL (or the calling library), automatic device detection will be run.
In case of unfounded HCA device please contact your system administrator.
[LOG_CAT_ML] You must specify a valid HCA device by setting:
-x HCOLL_MAIN_IB=<dev_name:port> or -x UCX_NET_DEVICES=<dev_name:port>.
If no device was specified for HCOLL (or the calling library), automatic device detection will be run.
In case of unfounded HCA device please contact your system administrator.
[student3-ThinkStation-P3-Tower:840136] Error: ../../../../../ompi/mca/coll/hcoll/coll_hcoll_module.c:310 - mca_coll_hcoll_comm_query() Hcol library init failed
[student3-ThinkStation-P3-Tower:840120] Error: ../../../../../ompi/mca/coll/hcoll/coll_hcoll_module.c:310 - mca_coll_hcoll_comm_query() Hcol library init failed
[student3-ThinkStation-P3-Tower:840128] Error: ../../../../../ompi/mca/coll/hcoll/coll_hcoll_module.c:310 - mca_coll_hcoll_comm_query() Hcol library init failed
[student3-ThinkStation-P3-Tower:840142] Error: ../../../../../ompi/mca/coll/hcoll/coll_hcoll_module.c:310 - mca_coll_hcoll_comm_query() Hcol library init failed
[student3-ThinkStation-P3-Tower:840124] Error: ../../../../../ompi/mca/coll/hcoll/coll_hcoll_module.c:310 - mca_coll_hcoll_comm_query() Hcol library init failed
[student3-ThinkStation-P3-Tower:840132] Error: ../../../../../ompi/mca/coll/hcoll/coll_hcoll_module.c:310 - mca_coll_hcoll_comm_query() Hcol library init failed
[student3-ThinkStation-P3-Tower:840145] Error: ../../../../../ompi/mca/coll/hcoll/coll_hcoll_module.c:310 - mca_coll_hcoll_comm_query() Hcol library init failed
 running   16 mpi-ranks, on    1 nodes
 distrk:  each k-point on   16 cores,    1 groups
 distr:  one band on    2 cores,    8 groups
 vasp.6.5.1 10Mar25 (build Jul 20 2026 11:14:49) complex                         
 POSCAR found type information on POSCAR FeCo
 POSCAR found :  2 types and      16 ions
 scaLAPACK will be used
 LDA part: xc-table for (Slater+PW92), standard interpolation
 POSCAR, INCAR and KPOINTS ok, starting setup
 FFT: planning ... GRIDC
 FFT: planning ... GRID_SOFT
 FFT: planning ... GRID
 WAVECAR not read
 entering main loop
       N       E                     dE             d eps       ncg     rms          rms(c)
DAV:   1     0.228687513694E+04    0.22869E+04   -0.77198E+04277176   0.200E+03
DAV:   2     0.203047855973E+03   -0.20838E+04   -0.19904E+04253952   0.567E+02
DAV:   3    -0.114649975759E+03   -0.31770E+03   -0.26134E+03256016   0.224E+02
DAV:   4    -0.137850435902E+03   -0.23200E+02   -0.22065E+02276232   0.679E+01
DAV:   5    -0.138435113505E+03   -0.58468E+00   -0.58271E+00290944   0.113E+01    0.434E+01
DAV:   6    -0.145484129861E+03   -0.70490E+01   -0.64297E+01272976   0.773E+01    0.620E+01
DAV:   7    -0.228543430912E+03   -0.83059E+02   -0.16150E+02300056   0.168E+02    0.114E+02
DAV:   8    -0.186776051783E+03    0.41767E+02   -0.77562E+01315120   0.124E+02    0.931E+01
DAV:   9    -0.165902780302E+03    0.20873E+02   -0.56511E+01354776   0.110E+02    0.866E+01
DAV:  10    -0.139681329560E+03    0.26221E+02   -0.33919E+01323672   0.660E+01    0.627E+01
DAV:  11    -0.173168680311E+03   -0.33487E+02   -0.48346E+01344256   0.129E+02    0.879E+01
DAV:  12    -0.131490116263E+03    0.41679E+02   -0.24548E+01326672   0.698E+01    0.461E+01
DAV:  13    -0.133185606666E+03   -0.16955E+01   -0.18003E+01323456   0.698E+01    0.526E+01
DAV:  14    -0.124385767383E+03    0.87998E+01   -0.89010E+00336680   0.558E+01    0.330E+01
DAV:  15    -0.122783026159E+03    0.16027E+01   -0.34365E+00298192   0.251E+01    0.280E+01
DAV:  16    -0.121326221258E+03    0.14568E+01   -0.24313E+00268936   0.204E+01    0.196E+01
DAV:  17    -0.121353942665E+03   -0.27721E-01   -0.63511E-01274232   0.689E+00    0.190E+01
DAV:  18    -0.121517951451E+03   -0.16401E+00   -0.27446E-01267168   0.710E+00    0.198E+01
DAV:  19    -0.121758109519E+03   -0.24016E+00   -0.59874E-01332448   0.111E+01    0.180E+01
DAV:  20    -0.122072224784E+03   -0.31412E+00   -0.55991E-01333648   0.142E+01    0.172E+01
DAV:  21    -0.123745459512E+03   -0.16732E+01   -0.27579E+00328656   0.257E+01    0.226E+01
DAV:  22    -0.123130712025E+03    0.61475E+00   -0.15611E+00345072   0.253E+01    0.141E+01
DAV:  23    -0.125566142430E+03   -0.24354E+01   -0.35581E+00338952   0.332E+01    0.256E+01
DAV:  24    -0.125462312920E+03    0.10383E+00   -0.47524E+00305288   0.249E+01    0.267E+01
DAV:  25    -0.123181756767E+03    0.22806E+01   -0.20178E+00311440   0.229E+01    0.162E+01
DAV:  26    -0.122960853927E+03    0.22090E+00   -0.18056E+00338904   0.164E+01    0.146E+01
DAV:  27    -0.122940862943E+03    0.19991E-01   -0.61196E-01280720   0.155E+01    0.133E+01
DAV:  28    -0.122800784198E+03    0.14008E+00   -0.38455E-01294752   0.101E+01    0.103E+01
DAV:  29    -0.122956577985E+03   -0.15579E+00   -0.19364E-01359632   0.881E+00    0.111E+01
DAV:  30    -0.122844963106E+03    0.11161E+00   -0.20649E-01347032   0.111E+01    0.973E+00
DAV:  31    -0.123295508694E+03   -0.45055E+00   -0.42750E-01295752   0.139E+01    0.130E+01
DAV:  32    -0.122973132689E+03    0.32238E+00   -0.41639E-01329920   0.143E+01    0.932E+00
DAV:  33    -0.123013609138E+03   -0.40476E-01   -0.25045E-01359536   0.991E+00    0.897E+00
DAV:  34    -0.122870470841E+03    0.14314E+00   -0.12356E-01360536   0.715E+00    0.651E+00
DAV:  35    -0.122880019352E+03   -0.95485E-02   -0.62289E-02296352   0.429E+00    0.649E+00
DAV:  36    -0.122860526558E+03    0.19493E-01   -0.47901E-02334128   0.330E+00    0.597E+00
DAV:  37    -0.122846912479E+03    0.13614E-01   -0.93056E-02353944   0.376E+00    0.457E+00
DAV:  38    -0.122821060849E+03    0.25852E-01   -0.39140E-02329696   0.338E+00    0.374E+00
DAV:  39    -0.122808491199E+03    0.12570E-01   -0.41865E-02338808   0.221E+00    0.325E+00
DAV:  40    -0.122794802833E+03    0.13688E-01   -0.22336E-02351344   0.154E+00    0.275E+00
DAV:  41    -0.122795706559E+03   -0.90373E-03   -0.93963E-03273448   0.468E-01    0.289E+00
DAV:  42    -0.122805255263E+03   -0.95487E-02   -0.18534E-02365368   0.167E+00    0.282E+00
DAV:  43    -0.122801287394E+03    0.39679E-02   -0.20015E-02337304   0.260E+00    0.238E+00
DAV:  44    -0.122818125724E+03   -0.16838E-01   -0.28192E-02374424   0.284E+00    0.281E+00
DAV:  45    -0.122805167732E+03    0.12958E-01   -0.35661E-02361664   0.290E+00    0.247E+00
DAV:  46    -0.122804080949E+03    0.10868E-02   -0.24751E-02297776   0.122E+00    0.229E+00
DAV:  47    -0.122807127809E+03   -0.30469E-02   -0.14548E-02332824   0.180E+00    0.230E+00
DAV:  48    -0.122795553454E+03    0.11574E-01   -0.33036E-02281392   0.180E+00    0.134E+00
DAV:  49    -0.122793469086E+03    0.20844E-02   -0.13595E-02364456   0.146E+00    0.117E+00
DAV:  50    -0.122787429714E+03    0.60394E-02   -0.42081E-02301840   0.132E+00    0.777E-01
DAV:  51    -0.122787826783E+03   -0.39707E-03   -0.10486E-02267936   0.847E-01    0.803E-01
DAV:  52    -0.122786793566E+03    0.10332E-02   -0.89412E-03272856   0.745E-01    0.650E-01
DAV:  53    -0.122788432802E+03   -0.16392E-02   -0.22350E-02260856   0.583E-01    0.687E-01
DAV:  54    -0.122787149388E+03    0.12834E-02   -0.18913E-02259720   0.581E-01    0.624E-01
DAV:  55    -0.122786749116E+03    0.40027E-03   -0.25939E-03339200   0.495E-01    0.581E-01
DAV:  56    -0.122785548339E+03    0.12008E-02   -0.94478E-03280304   0.591E-01    0.378E-01
DAV:  57    -0.122785806961E+03   -0.25862E-03   -0.27546E-03273000   0.491E-01    0.389E-01
DAV:  58    -0.122785730338E+03    0.76623E-04   -0.71183E-03260808   0.471E-01    0.215E-01
DAV:  59    -0.122785781256E+03   -0.50918E-04   -0.87482E-03257504   0.325E-01    0.211E-01
DAV:  60    -0.122785815877E+03   -0.34621E-04   -0.76890E-04261712   0.267E-01    0.198E-01
DAV:  61    -0.122785642802E+03    0.17307E-03   -0.72956E-03256264   0.338E-01    0.154E-01
DAV:  62    -0.122785638410E+03    0.43924E-05   -0.19395E-03302784   0.286E-01    0.143E-01
DAV:  63    -0.122785649942E+03   -0.11532E-04   -0.16431E-03318984   0.266E-01    0.991E-02
DAV:  64    -0.122786072101E+03   -0.42216E-03   -0.52472E-03258680   0.285E-01    0.151E-01
DAV:  65    -0.122786080629E+03   -0.85274E-05   -0.46692E-04262872   0.225E-01    0.979E-02
DAV:  66    -0.122785989923E+03    0.90705E-04   -0.87771E-03260024   0.335E-01    0.195E-01
DAV:  67    -0.122785685156E+03    0.30477E-03   -0.21944E-03259256   0.260E-01    0.473E-02
DAV:  68    -0.122785951300E+03   -0.26614E-03   -0.92151E-04257984   0.131E-01    0.666E-02
DAV:  69    -0.122785998088E+03   -0.46789E-04   -0.16619E-04282264   0.121E-01    0.581E-02
DAV:  70    -0.122785924627E+03    0.73462E-04   -0.60608E-04256808   0.113E-01    0.530E-02
DAV:  71    -0.122785950236E+03   -0.25609E-04   -0.23533E-04305168   0.105E-01    0.419E-02
DAV:  72    -0.122785904987E+03    0.45249E-04   -0.42273E-04259576   0.839E-02    0.233E-02
DAV:  73    -0.122785906403E+03   -0.14156E-05   -0.49416E-04257616   0.738E-02    0.174E-02
DAV:  74    -0.122785911514E+03   -0.51117E-05   -0.17599E-04260568   0.495E-02    0.144E-02
DAV:  75    -0.122785942205E+03   -0.30691E-04   -0.91447E-05254480   0.371E-02    0.105E-02
DAV:  76    -0.122785927560E+03    0.14645E-04   -0.58549E-05258424   0.374E-02    0.167E-02
DAV:  77    -0.122785897149E+03    0.30410E-04   -0.20157E-05276776   0.298E-02    0.779E-03
DAV:  78    -0.122785889167E+03    0.79827E-05   -0.23253E-05237048   0.191E-02    0.530E-03
DAV:  79    -0.122785903600E+03   -0.14433E-04   -0.18602E-05236768   0.166E-02    0.477E-03
DAV:  80    -0.122785911290E+03   -0.76897E-05   -0.61873E-06236112   0.116E-02    0.405E-03
DAV:  81    -0.122785907279E+03    0.40109E-05   -0.57279E-06235336   0.993E-03    0.348E-03
DAV:  82    -0.122785901141E+03    0.61382E-05   -0.34128E-06233968   0.824E-03    0.274E-03
DAV:  83    -0.122785898075E+03    0.30655E-05   -0.15056E-06207576   0.595E-03    0.221E-03
DAV:  84    -0.122785898594E+03   -0.51848E-06   -0.16299E-06220568   0.533E-03
   1 F= -.12278590E+03 E0= -.12278801E+03  d E =0.633896E-02  mag=     2.8825    -0.0000    33.0432
