       N       E                     dE             d eps       ncg     rms          rms(c)
DAV:   1     0.796513424421E+04    0.79651E+04   -0.26893E+05105196   0.212E+03
DAV:   2     0.794431791595E+03   -0.71707E+04   -0.68296E+04 99540   0.601E+02
DAV:   3    -0.346777069515E+03   -0.11412E+04   -0.93802E+03 99540   0.241E+02
DAV:   4    -0.445522788119E+03   -0.98746E+02   -0.92877E+02109288   0.763E+01
DAV:   5    -0.448828465269E+03   -0.33057E+01   -0.32762E+01116136   0.142E+01    0.770E+01
DAV:   6    -0.440715186961E+03    0.81133E+01   -0.55960E+02109808   0.958E+01    0.952E+01
DAV:   7    -0.500279248060E+03   -0.59564E+02   -0.18268E+02116544   0.109E+02    0.149E+02
DAV:   8    -0.423774928325E+03    0.76504E+02   -0.93035E+01125421   0.673E+01    0.712E+01
DAV:   9    -0.397478507703E+03    0.26296E+02   -0.44262E+01131392   0.525E+01    0.397E+01
DAV:  10    -0.410628666835E+03   -0.13150E+02   -0.36532E+01127912   0.489E+01    0.646E+01
DAV:  11    -0.397248405349E+03    0.13380E+02   -0.23051E+01111528   0.351E+01    0.295E+01
DAV:  12    -0.395713496823E+03    0.15349E+01   -0.75638E+00127272   0.209E+01    0.232E+01
DAV:  13    -0.395545598408E+03    0.16790E+00   -0.39768E+00114568   0.135E+01    0.173E+01
DAV:  14    -0.395399941600E+03    0.14566E+00   -0.22947E+00108424   0.117E+01    0.159E+01
DAV:  15    -0.395705748319E+03   -0.30581E+00   -0.12742E+00117240   0.910E+00    0.148E+01
DAV:  16    -0.395502113503E+03    0.20363E+00   -0.96871E-01113032   0.824E+00    0.105E+01
DAV:  17    -0.395873364249E+03   -0.37125E+00   -0.76842E-01125032   0.710E+00    0.115E+01
DAV:  18    -0.395853073868E+03    0.20290E-01   -0.68266E-01115640   0.611E+00    0.759E+00
DAV:  19    -0.396076799768E+03   -0.22373E+00   -0.63765E-01121296   0.735E+00    0.101E+01
DAV:  20    -0.395996969965E+03    0.79830E-01   -0.53639E-01115280   0.629E+00    0.731E+00
DAV:  21    -0.395879522593E+03    0.11745E+00   -0.25418E-01124024   0.466E+00    0.442E+00
DAV:  22    -0.395951568281E+03   -0.72046E-01   -0.17309E-01126408   0.353E+00    0.468E+00
DAV:  23    -0.395933215963E+03    0.18352E-01   -0.11090E-01117032   0.298E+00    0.303E+00
DAV:  24    -0.395966695129E+03   -0.33479E-01   -0.83290E-02124416   0.269E+00    0.348E+00
DAV:  25    -0.395958780741E+03    0.79144E-02   -0.88928E-02117120   0.260E+00    0.277E+00
DAV:  26    -0.395938907014E+03    0.19874E-01   -0.49289E-02113352   0.202E+00    0.120E+00
DAV:  27    -0.395944684536E+03   -0.57775E-02   -0.22142E-02124928   0.129E+00    0.141E+00
DAV:  28    -0.395938925159E+03    0.57594E-02   -0.11769E-02112296   0.114E+00    0.646E-01
DAV:  29    -0.395940564803E+03   -0.16396E-02   -0.56420E-03117224   0.730E-01    0.782E-01
DAV:  30    -0.395939304495E+03    0.12603E-02   -0.39011E-03114472   0.621E-01    0.413E-01
DAV:  31    -0.395938968831E+03    0.33566E-03   -0.17814E-03118864   0.391E-01    0.278E-01
DAV:  32    -0.395939193190E+03   -0.22436E-03   -0.10685E-03124432   0.276E-01    0.305E-01
DAV:  33    -0.395938916027E+03    0.27716E-03   -0.61906E-04112256   0.233E-01    0.132E-01
DAV:  34    -0.395938950107E+03   -0.34080E-04   -0.19693E-04128640   0.127E-01    0.134E-01
DAV:  35    -0.395938903662E+03    0.46445E-04   -0.12011E-04113640   0.106E-01    0.651E-02
DAV:  36    -0.395938908579E+03   -0.49169E-05   -0.47829E-05119200   0.680E-02    0.639E-02
DAV:  37    -0.395938902524E+03    0.60551E-05   -0.32359E-05120088   0.524E-02    0.442E-02
DAV:  38    -0.395938898000E+03    0.45236E-05   -0.15870E-05104560   0.395E-02    0.245E-02
DAV:  39    -0.395938899687E+03   -0.16866E-05   -0.85031E-06101968   0.278E-02    0.286E-02
DAV:  40    -0.395938896367E+03    0.33203E-05   -0.47733E-06 91384   0.230E-02    0.105E-02
DAV:  41    -0.395938896766E+03   -0.39953E-06   -0.14890E-06 51400   0.125E-02
   1 F= -.39593890E+03 E0= -.39593887E+03  d E =-.724042E-04  mag=    91.0338
