       N       E                     dE             d eps       ncg     rms          rms(c)
DAV:   1     0.274353836403E+03    0.27435E+03   -0.16375E+04******   0.190E+03
DAV:   2    -0.308720223762E+01   -0.27744E+03   -0.26480E+03******   0.452E+02
DAV:   3    -0.164151117351E+02   -0.13328E+02   -0.13271E+02******   0.110E+02
DAV:   4    -0.165564827714E+02   -0.14137E+00   -0.14136E+00******   0.110E+01
DAV:   5    -0.165591800836E+02   -0.26973E-02   -0.26973E-02******   0.141E+00
DAV:   6    -0.165592648483E+02   -0.84765E-04   -0.84766E-04******   0.233E-01
DAV:   7    -0.165592680838E+02   -0.32355E-05   -0.32354E-05974848   0.446E-02
DAV:   8    -0.165592682211E+02   -0.13733E-06   -0.13605E-06858192   0.908E-03
   1 F= -.16559268E+02 E0= -.16559228E+02  d E =-.121356E-03  mag=     0.0000     0.0000     4.4774
