       N       E                     dE             d eps       ncg     rms          rms(c)
DAV:   1     0.274368227529E+03    0.27437E+03   -0.16374E+04******   0.190E+03
DAV:   2    -0.308565986142E+01   -0.27745E+03   -0.26481E+03******   0.452E+02
DAV:   3    -0.164150758432E+02   -0.13329E+02   -0.13273E+02******   0.110E+02
DAV:   4    -0.165564816720E+02   -0.14141E+00   -0.14140E+00******   0.110E+01
DAV:   5    -0.165591795512E+02   -0.26979E-02   -0.26978E-02******   0.141E+00
DAV:   6    -0.165592643238E+02   -0.84773E-04   -0.84774E-04******   0.233E-01
DAV:   7    -0.165592675600E+02   -0.32362E-05   -0.32356E-05974656   0.446E-02
DAV:   8    -0.165592676966E+02   -0.13666E-06   -0.13604E-06858640   0.908E-03
   1 F= -.16559268E+02 E0= -.16559227E+02  d E =-.122047E-03  mag=     0.0000     0.0000     4.4774
