       N       E                     dE             d eps       ncg     rms          rms(c)
DAV:   1     0.922416438856E+04    0.92242E+04   -0.29933E+05110400   0.219E+03
DAV:   2     0.946613988735E+03   -0.82776E+04   -0.79135E+04108360   0.636E+02
DAV:   3    -0.347647215630E+03   -0.12943E+04   -0.10581E+04108368   0.250E+02
DAV:   4    -0.453414014303E+03   -0.10577E+03   -0.10017E+03116554   0.773E+01
DAV:   5    -0.456475795629E+03   -0.30618E+01   -0.30405E+01126936   0.137E+01    0.788E+01
DAV:   6    -0.449385642514E+03    0.70902E+01   -0.53274E+02117744   0.926E+01    0.106E+02
DAV:   7    -0.496168381789E+03   -0.46783E+02   -0.18657E+02117680   0.102E+02    0.139E+02
DAV:   8    -0.439375855273E+03    0.56793E+02   -0.90732E+01127474   0.644E+01    0.861E+01
DAV:   9    -0.402824899763E+03    0.36551E+02   -0.52165E+01139474   0.533E+01    0.415E+01
DAV:  10    -0.434703858024E+03   -0.31879E+02   -0.38825E+01142416   0.523E+01    0.876E+01
DAV:  11    -0.402224466576E+03    0.32479E+02   -0.22299E+01126860   0.334E+01    0.337E+01
DAV:  12    -0.399923808231E+03    0.23007E+01   -0.78709E+00135586   0.188E+01    0.244E+01
DAV:  13    -0.400942366885E+03   -0.10186E+01   -0.40868E+00124498   0.127E+01    0.247E+01
DAV:  14    -0.399941290259E+03    0.10011E+01   -0.31026E+00118492   0.973E+00    0.185E+01
DAV:  15    -0.400433523111E+03   -0.49223E+00   -0.17720E+00119768   0.968E+00    0.183E+01
DAV:  16    -0.400494574366E+03   -0.61051E-01   -0.16219E+00133682   0.863E+00    0.150E+01
DAV:  17    -0.400328438673E+03    0.16614E+00   -0.10759E+00123602   0.801E+00    0.111E+01
DAV:  18    -0.400721757267E+03   -0.39332E+00   -0.86498E-01132224   0.701E+00    0.110E+01
DAV:  19    -0.400703512978E+03    0.18244E-01   -0.55940E-01125906   0.604E+00    0.773E+00
DAV:  20    -0.400972561642E+03   -0.26905E+00   -0.49708E-01132338   0.607E+00    0.981E+00
DAV:  21    -0.400989007422E+03   -0.16446E-01   -0.49485E-01125338   0.547E+00    0.767E+00
DAV:  22    -0.401034484069E+03   -0.45477E-01   -0.19673E-01142616   0.362E+00    0.739E+00
DAV:  23    -0.401093576396E+03   -0.59092E-01   -0.11189E-01135208   0.199E+00    0.719E+00
DAV:  24    -0.401107635048E+03   -0.14059E-01   -0.31505E-02123682   0.120E+00    0.693E+00
DAV:  25    -0.401195615572E+03   -0.87981E-01   -0.53640E-02133280   0.163E+00    0.678E+00
DAV:  26    -0.401274714465E+03   -0.79099E-01   -0.92430E-02136108   0.229E+00    0.561E+00
DAV:  27    -0.401439442679E+03   -0.16473E+00   -0.21105E-01133176   0.394E+00    0.596E+00
DAV:  28    -0.401347860353E+03    0.91582E-01   -0.16149E-01129656   0.377E+00    0.301E+00
DAV:  29    -0.401367002032E+03   -0.19142E-01   -0.87943E-02130048   0.273E+00    0.338E+00
DAV:  30    -0.401330610510E+03    0.36392E-01   -0.59605E-02123880   0.233E+00    0.171E+00
DAV:  31    -0.401332945729E+03   -0.23352E-02   -0.25328E-02126896   0.150E+00    0.156E+00
DAV:  32    -0.401329119806E+03    0.38259E-02   -0.14999E-02131840   0.107E+00    0.840E-01
DAV:  33    -0.401328750559E+03    0.36925E-03   -0.56821E-03128506   0.677E-01    0.708E-01
DAV:  34    -0.401328434015E+03    0.31654E-03   -0.32817E-03129440   0.458E-01    0.554E-01
DAV:  35    -0.401327811258E+03    0.62276E-03   -0.17252E-03118960   0.400E-01    0.317E-01
DAV:  36    -0.401328131863E+03   -0.32061E-03   -0.11751E-03138344   0.283E-01    0.361E-01
DAV:  37    -0.401327794183E+03    0.33768E-03   -0.71832E-04123720   0.263E-01    0.199E-01
DAV:  38    -0.401327979215E+03   -0.18503E-03   -0.35973E-04135000   0.176E-01    0.218E-01
DAV:  39    -0.401327832339E+03    0.14688E-03   -0.24075E-04123946   0.153E-01    0.911E-02
DAV:  40    -0.401327848327E+03   -0.15988E-04   -0.90624E-05130050   0.907E-02    0.957E-02
DAV:  41    -0.401327815126E+03    0.33201E-04   -0.56420E-05122568   0.711E-02    0.520E-02
DAV:  42    -0.401327815919E+03   -0.79296E-06   -0.17139E-05124042   0.397E-02    0.497E-02
DAV:  43    -0.401327812155E+03    0.37642E-05   -0.98776E-06117418   0.283E-02    0.327E-02
DAV:  44    -0.401327812785E+03   -0.62961E-06   -0.44702E-06102522   0.204E-02
   1 F= -.40132781E+03 E0= -.40132786E+03  d E =0.141654E-03  mag=   100.8413
