B2 FeCo 2x2x2 four-state state2_pm, Fe-C
   1.0000000000000000     
     5.7140000000000004    0.0000000000000000    0.0000000000000000
     0.0000000000000000    5.7140000000000004    0.0000000000000000
     0.0000000000000000    0.0000000000000000    5.7140000000000004
   Fe   Co
     8     8
Direct
     0.0000000000000000    0.0000000000000000    0.0000000000000000
     0.0000000000000000    0.0000000000000000    0.5000000000000000
     0.0000000000000000    0.5000000000000000    0.0000000000000000
     0.0000000000000000    0.5000000000000000    0.5000000000000000
     0.5000000000000000    0.0000000000000000    0.0000000000000000
     0.5000000000000000    0.0000000000000000    0.5000000000000000
     0.5000000000000000    0.5000000000000000    0.0000000000000000
     0.5000000000000000    0.5000000000000000    0.5000000000000000
     0.2500000000000000    0.2500000000000000    0.2500000000000000
     0.2500000000000000    0.2500000000000000    0.7500000000000000
     0.2500000000000000    0.7500000000000000    0.2500000000000000
     0.2500000000000000    0.7500000000000000    0.7500000000000000
     0.7500000000000000    0.2500000000000000    0.2500000000000000
     0.7500000000000000    0.2500000000000000    0.7500000000000000
     0.7500000000000000    0.7500000000000000    0.2500000000000000
     0.7500000000000000    0.7500000000000000    0.7500000000000000

  0.00000000E+00  0.00000000E+00  0.00000000E+00
  0.00000000E+00  0.00000000E+00  0.00000000E+00
  0.00000000E+00  0.00000000E+00  0.00000000E+00
  0.00000000E+00  0.00000000E+00  0.00000000E+00
  0.00000000E+00  0.00000000E+00  0.00000000E+00
  0.00000000E+00  0.00000000E+00  0.00000000E+00
  0.00000000E+00  0.00000000E+00  0.00000000E+00
  0.00000000E+00  0.00000000E+00  0.00000000E+00
  0.00000000E+00  0.00000000E+00  0.00000000E+00
  0.00000000E+00  0.00000000E+00  0.00000000E+00
  0.00000000E+00  0.00000000E+00  0.00000000E+00
  0.00000000E+00  0.00000000E+00  0.00000000E+00
  0.00000000E+00  0.00000000E+00  0.00000000E+00
  0.00000000E+00  0.00000000E+00  0.00000000E+00
  0.00000000E+00  0.00000000E+00  0.00000000E+00
  0.00000000E+00  0.00000000E+00  0.00000000E+00
