POTCAR files are NOT included: they are VASP-licensed and may not be redistributed.
Regenerate POTCAR by concatenating these PAW datasets from your own VASP distribution,
in this exact order (species order matches POSCAR):

TITEL  = PAW_PBE Fe_pv 02Aug2007                                                                 
TITEL  = PAW_PBE Co 02Aug2007                                                                    

VASP version: vasp.6.5.1 10Mar25 (build Jul 20 2026 11:14:49) complex                         
