[LOG_CAT_ML] You must specify a valid HCA device by setting:
-x HCOLL_MAIN_IB=<dev_name:port> or -x UCX_NET_DEVICES=<dev_name:port>.
If no device was specified for HCOLL (or the calling library), automatic device detection will be run.
In case of unfounded HCA device please contact your system administrator.
[LOG_CAT_ML] You must specify a valid HCA device by setting:
-x HCOLL_MAIN_IB=<dev_name:port> or -x UCX_NET_DEVICES=<dev_name:port>.
If no device was specified for HCOLL (or the calling library), automatic device detection will be run.
In case of unfounded HCA device please contact your system administrator.
[LOG_CAT_ML] You must specify a valid HCA device by setting:
-x HCOLL_MAIN_IB=<dev_name:port> or -x UCX_NET_DEVICES=<dev_name:port>.
If no device was specified for HCOLL (or the calling library), automatic device detection will be run.
In case of unfounded HCA device please contact your system administrator.
[LOG_CAT_ML] You must specify a valid HCA device by setting:
-x HCOLL_MAIN_IB=<dev_name:port> or -x UCX_NET_DEVICES=<dev_name:port>.
If no device was specified for HCOLL (or the calling library), automatic device detection will be run.
In case of unfounded HCA device please contact your system administrator.
[LOG_CAT_ML] You must specify a valid HCA device by setting:
-x HCOLL_MAIN_IB=<dev_name:port> or -x UCX_NET_DEVICES=<dev_name:port>.
If no device was specified for HCOLL (or the calling library), automatic device detection will be run.
In case of unfounded HCA device please contact your system administrator.
[LOG_CAT_ML] You must specify a valid HCA device by setting:
-x HCOLL_MAIN_IB=<dev_name:port> or -x UCX_NET_DEVICES=<dev_name:port>.
If no device was specified for HCOLL (or the calling library), automatic device detection will be run.
In case of unfounded HCA device please contact your system administrator.
[student3-ThinkStation-P3-Tower:315433] Error: ../../../../../ompi/mca/coll/hcoll/coll_hcoll_module.c:310 - mca_coll_hcoll_comm_query() Hcol library init failed
[LOG_CAT_ML] You must specify a valid HCA device by setting:
-x HCOLL_MAIN_IB=<dev_name:port> or -x UCX_NET_DEVICES=<dev_name:port>.
If no device was specified for HCOLL (or the calling library), automatic device detection will be run.
In case of unfounded HCA device please contact your system administrator.
[student3-ThinkStation-P3-Tower:315434] Error: ../../../../../ompi/mca/coll/hcoll/coll_hcoll_module.c:310 - mca_coll_hcoll_comm_query() Hcol library init failed
[LOG_CAT_ML] You must specify a valid HCA device by setting:
-x HCOLL_MAIN_IB=<dev_name:port> or -x UCX_NET_DEVICES=<dev_name:port>.
If no device was specified for HCOLL (or the calling library), automatic device detection will be run.
In case of unfounded HCA device please contact your system administrator.
[student3-ThinkStation-P3-Tower:315444] Error: ../../../../../ompi/mca/coll/hcoll/coll_hcoll_module.c:310 - mca_coll_hcoll_comm_query() Hcol library init failed
[student3-ThinkStation-P3-Tower:315441] Error: ../../../../../ompi/mca/coll/hcoll/coll_hcoll_module.c:310 - mca_coll_hcoll_comm_query() Hcol library init failed
[student3-ThinkStation-P3-Tower:315437] Error: ../../../../../ompi/mca/coll/hcoll/coll_hcoll_module.c:310 - mca_coll_hcoll_comm_query() Hcol library init failed
[student3-ThinkStation-P3-Tower:315432] Error: ../../../../../ompi/mca/coll/hcoll/coll_hcoll_module.c:310 - mca_coll_hcoll_comm_query() Hcol library init failed
[student3-ThinkStation-P3-Tower:315439] Error: ../../../../../ompi/mca/coll/hcoll/coll_hcoll_module.c:310 - mca_coll_hcoll_comm_query() Hcol library init failed
[student3-ThinkStation-P3-Tower:315435] Error: ../../../../../ompi/mca/coll/hcoll/coll_hcoll_module.c:310 - mca_coll_hcoll_comm_query() Hcol library init failed
[LOG_CAT_ML] You must specify a valid HCA device by setting:
-x HCOLL_MAIN_IB=<dev_name:port> or -x UCX_NET_DEVICES=<dev_name:port>.
If no device was specified for HCOLL (or the calling library), automatic device detection will be run.
In case of unfounded HCA device please contact your system administrator.
[LOG_CAT_ML] You must specify a valid HCA device by setting:
-x HCOLL_MAIN_IB=<dev_name:port> or -x UCX_NET_DEVICES=<dev_name:port>.
If no device was specified for HCOLL (or the calling library), automatic device detection will be run.
In case of unfounded HCA device please contact your system administrator.
[LOG_CAT_ML] You must specify a valid HCA device by setting:
-x HCOLL_MAIN_IB=<dev_name:port> or -x UCX_NET_DEVICES=<dev_name:port>.
If no device was specified for HCOLL (or the calling library), automatic device detection will be run.
In case of unfounded HCA device please contact your system administrator.
[LOG_CAT_ML] You must specify a valid HCA device by setting:
-x HCOLL_MAIN_IB=<dev_name:port> or -x UCX_NET_DEVICES=<dev_name:port>.
If no device was specified for HCOLL (or the calling library), automatic device detection will be run.
In case of unfounded HCA device please contact your system administrator.
[LOG_CAT_ML] You must specify a valid HCA device by setting:
-x HCOLL_MAIN_IB=<dev_name:port> or -x UCX_NET_DEVICES=<dev_name:port>.
If no device was specified for HCOLL (or the calling library), automatic device detection will be run.
In case of unfounded HCA device please contact your system administrator.
[LOG_CAT_ML] You must specify a valid HCA device by setting:
-x HCOLL_MAIN_IB=<dev_name:port> or -x UCX_NET_DEVICES=<dev_name:port>.
If no device was specified for HCOLL (or the calling library), automatic device detection will be run.
In case of unfounded HCA device please contact your system administrator.
[LOG_CAT_ML] You must specify a valid HCA device by setting:
-x HCOLL_MAIN_IB=<dev_name:port> or -x UCX_NET_DEVICES=<dev_name:port>.
If no device was specified for HCOLL (or the calling library), automatic device detection will be run.
In case of unfounded HCA device please contact your system administrator.
[LOG_CAT_ML] You must specify a valid HCA device by setting:
-x HCOLL_MAIN_IB=<dev_name:port> or -x UCX_NET_DEVICES=<dev_name:port>.
If no device was specified for HCOLL (or the calling library), automatic device detection will be run.
In case of unfounded HCA device please contact your system administrator.
[student3-ThinkStation-P3-Tower:315460] Error: ../../../../../ompi/mca/coll/hcoll/coll_hcoll_module.c:310 - mca_coll_hcoll_comm_query() Hcol library init failed
[student3-ThinkStation-P3-Tower:315467] Error: ../../../../../ompi/mca/coll/hcoll/coll_hcoll_module.c:310 - mca_coll_hcoll_comm_query() Hcol library init failed
[student3-ThinkStation-P3-Tower:315469] Error: ../../../../../ompi/mca/coll/hcoll/coll_hcoll_module.c:310 - mca_coll_hcoll_comm_query() Hcol library init failed
[student3-ThinkStation-P3-Tower:315448] Error: ../../../../../ompi/mca/coll/hcoll/coll_hcoll_module.c:310 - mca_coll_hcoll_comm_query() Hcol library init failed
[student3-ThinkStation-P3-Tower:315472] Error: ../../../../../ompi/mca/coll/hcoll/coll_hcoll_module.c:310 - mca_coll_hcoll_comm_query() Hcol library init failed
[student3-ThinkStation-P3-Tower:315451] Error: ../../../../../ompi/mca/coll/hcoll/coll_hcoll_module.c:310 - mca_coll_hcoll_comm_query() Hcol library init failed
[student3-ThinkStation-P3-Tower:315456] Error: ../../../../../ompi/mca/coll/hcoll/coll_hcoll_module.c:310 - mca_coll_hcoll_comm_query() Hcol library init failed
[student3-ThinkStation-P3-Tower:315463] Error: ../../../../../ompi/mca/coll/hcoll/coll_hcoll_module.c:310 - mca_coll_hcoll_comm_query() Hcol library init failed
 running   16 mpi-ranks, on    1 nodes
 distrk:  each k-point on   16 cores,    1 groups
 distr:  one band on    2 cores,    8 groups
 vasp.6.5.1 10Mar25 (build Jul 20 2026 11:14:49) complex                         
 POSCAR found type information on POSCAR FeCo
 POSCAR found :  2 types and      16 ions
 scaLAPACK will be used
 LDA part: xc-table for (Slater+PW92), standard interpolation
 POSCAR, INCAR and KPOINTS ok, starting setup
 FFT: planning ... GRIDC
 FFT: planning ... GRID_SOFT
 FFT: planning ... GRID
 WAVECAR not read
 entering main loop
       N       E                     dE             d eps       ncg     rms          rms(c)
DAV:   1     0.228696423347E+04    0.22870E+04   -0.77211E+04277200   0.200E+03
DAV:   2     0.203115289578E+03   -0.20838E+04   -0.19904E+04253952   0.567E+02
DAV:   3    -0.114648280533E+03   -0.31776E+03   -0.26144E+03256112   0.224E+02
DAV:   4    -0.137752306021E+03   -0.23104E+02   -0.21987E+02274840   0.677E+01
DAV:   5    -0.138342699644E+03   -0.59039E+00   -0.58602E+00290768   0.114E+01    0.433E+01
DAV:   6    -0.125346873793E+03    0.12996E+02   -0.51035E+01278120   0.419E+01    0.350E+01
DAV:   7    -0.133418186944E+03   -0.80713E+01   -0.23234E+01293384   0.502E+01    0.361E+01
DAV:   8    -0.129062943533E+03    0.43552E+01   -0.99928E+00288992   0.328E+01    0.271E+01
DAV:   9    -0.126669891389E+03    0.23931E+01   -0.41729E+00297160   0.288E+01    0.219E+01
DAV:  10    -0.128126989462E+03   -0.14571E+01   -0.47629E+00332496   0.467E+01    0.360E+01
DAV:  11    -0.122847736359E+03    0.52793E+01   -0.32952E+00284240   0.297E+01    0.132E+01
DAV:  12    -0.123434758546E+03   -0.58702E+00   -0.12265E+00316584   0.141E+01    0.166E+01
DAV:  13    -0.123095847936E+03    0.33891E+00   -0.93294E-01274000   0.165E+01    0.132E+01
DAV:  14    -0.124526943675E+03   -0.14311E+01   -0.16300E+00311016   0.199E+01    0.206E+01
DAV:  15    -0.126115464114E+03   -0.15885E+01   -0.27816E+00304016   0.366E+01    0.264E+01
DAV:  16    -0.126270140593E+03   -0.15468E+00   -0.23198E+00341144   0.360E+01    0.230E+01
DAV:  17    -0.124413627642E+03    0.18565E+01   -0.19902E+00312816   0.359E+01    0.138E+01
DAV:  18    -0.124526198397E+03   -0.11257E+00   -0.11749E+00357408   0.259E+01    0.160E+01
DAV:  19    -0.125449859087E+03   -0.92366E+00   -0.19071E+00322808   0.308E+01    0.211E+01
DAV:  20    -0.123597938157E+03    0.18519E+01   -0.11368E+00326984   0.236E+01    0.692E+00
DAV:  21    -0.123843408336E+03   -0.24547E+00   -0.59557E-01351072   0.172E+01    0.948E+00
DAV:  22    -0.123521850593E+03    0.32156E+00   -0.31665E-01330440   0.132E+01    0.529E+00
DAV:  23    -0.123593477654E+03   -0.71627E-01   -0.22581E-01352560   0.994E+00    0.586E+00
DAV:  24    -0.123461204184E+03    0.13227E+00   -0.15883E-01359264   0.771E+00    0.277E+00
DAV:  25    -0.123682633536E+03   -0.22143E+00   -0.19852E-01352432   0.889E+00    0.733E+00
DAV:  26    -0.123466190086E+03    0.21644E+00   -0.16795E-01286272   0.810E+00    0.258E+00
DAV:  27    -0.123458424379E+03    0.77657E-02   -0.63326E-02360592   0.461E+00    0.213E+00
DAV:  28    -0.123434813715E+03    0.23611E-01   -0.37786E-02356808   0.288E+00    0.690E-01
DAV:  29    -0.123437852712E+03   -0.30390E-02   -0.28826E-02272536   0.137E+00    0.100E+00
DAV:  30    -0.123435447575E+03    0.24051E-02   -0.77734E-03266592   0.126E+00    0.606E-01
DAV:  31    -0.123436772350E+03   -0.13248E-02   -0.28195E-02297528   0.117E+00    0.731E-01
DAV:  32    -0.123435132200E+03    0.16402E-02   -0.70434E-03316600   0.117E+00    0.476E-01
DAV:  33    -0.123434793118E+03    0.33908E-03   -0.29255E-02270944   0.869E-01    0.474E-01
DAV:  34    -0.123434449288E+03    0.34383E-03   -0.71585E-03270488   0.812E-01    0.357E-01
DAV:  35    -0.123434231229E+03    0.21806E-03   -0.13736E-02265272   0.635E-01    0.313E-01
DAV:  36    -0.123434109019E+03    0.12221E-03   -0.29537E-03282744   0.551E-01    0.186E-01
DAV:  37    -0.123434025737E+03    0.83282E-04   -0.20369E-02261592   0.485E-01    0.160E-01
DAV:  38    -0.123434367075E+03   -0.34134E-03   -0.70587E-03266288   0.375E-01    0.182E-01
DAV:  39    -0.123434613618E+03   -0.24654E-03   -0.23377E-03295112   0.385E-01    0.165E-01
DAV:  40    -0.123434402931E+03    0.21069E-03   -0.68273E-03260336   0.373E-01    0.167E-01
DAV:  41    -0.123434451367E+03   -0.48436E-04   -0.90559E-04290328   0.286E-01    0.120E-01
DAV:  42    -0.123434295882E+03    0.15549E-03   -0.10307E-02258840   0.339E-01    0.102E-01
DAV:  43    -0.123434485942E+03   -0.19006E-03   -0.61989E-03258928   0.280E-01    0.122E-01
DAV:  44    -0.123434624432E+03   -0.13849E-03   -0.15242E-03261584   0.243E-01    0.121E-01
DAV:  45    -0.123434494768E+03    0.12966E-03   -0.40602E-03258376   0.246E-01    0.776E-02
DAV:  46    -0.123434706974E+03   -0.21221E-03   -0.15509E-03264376   0.168E-01    0.576E-02
DAV:  47    -0.123434751288E+03   -0.44314E-04   -0.13216E-03258776   0.144E-01    0.399E-02
DAV:  48    -0.123434765129E+03   -0.13841E-04   -0.13360E-03256632   0.123E-01    0.281E-02
DAV:  49    -0.123434838530E+03   -0.73400E-04   -0.56508E-04256576   0.879E-02    0.316E-02
DAV:  50    -0.123434832406E+03    0.61243E-05   -0.14343E-04262464   0.610E-02    0.225E-02
DAV:  51    -0.123434811953E+03    0.20453E-04   -0.60656E-04256984   0.774E-02    0.233E-02
DAV:  52    -0.123434826241E+03   -0.14289E-04   -0.34079E-04257480   0.640E-02    0.195E-02
DAV:  53    -0.123434861713E+03   -0.35472E-04   -0.17874E-04257360   0.543E-02    0.160E-02
DAV:  54    -0.123434861447E+03    0.26609E-06   -0.12591E-04257248   0.453E-02    0.121E-02
DAV:  55    -0.123434871631E+03   -0.10185E-04   -0.64587E-05232384   0.327E-02    0.110E-02
DAV:  56    -0.123434863046E+03    0.85851E-05   -0.54752E-05234496   0.298E-02    0.922E-03
DAV:  57    -0.123434870958E+03   -0.79118E-05   -0.10366E-04235208   0.335E-02    0.515E-03
DAV:  58    -0.123434875020E+03   -0.40615E-05   -0.46472E-05232344   0.226E-02    0.470E-03
DAV:  59    -0.123434876271E+03   -0.12516E-05   -0.19857E-05232568   0.168E-02    0.552E-03
DAV:  60    -0.123434876985E+03   -0.71384E-06   -0.10323E-05233160   0.140E-02    0.446E-03
DAV:  61    -0.123434875725E+03    0.12601E-05   -0.22630E-05232784   0.158E-02    0.452E-03
DAV:  62    -0.123434878374E+03   -0.26486E-05   -0.70688E-06232888   0.107E-02    0.178E-03
DAV:  63    -0.123434878260E+03    0.11340E-06   -0.39699E-06233392   0.701E-03
   1 F= -.12343488E+03 E0= -.12343838E+03  d E =0.105036E-01  mag=     0.0000     0.0000    36.2771
