 running    1 mpi-ranks, on    1 nodes
 distrk:  each k-point on    1 cores,    1 groups
 distr:  one band on    1 cores,    1 groups
 vasp.6.5.1 10Mar25 (build May 15 2026 23:14:27) complex                         
 POSCAR found type information on POSCAR FeCoNiMnAlSi
 POSCAR found :  6 types and     108 ions
 scaLAPACK will be used selectively (only on CPU)
 LDA part: xc-table for (Slater+PW92), standard interpolation
 POSCAR, INCAR and KPOINTS ok, starting setup
 FFT: planning ... GRIDC
 FFT: planning ... GRID_SOFT
 FFT: planning ... GRID
 WAVECAR not read
 WARNING: random wavefunctions but no delay for mixing, default for NELMDL
 entering main loop
       N       E                     dE             d eps       ncg     rms          rms(c)
DAV:   1     0.188489156416E+05    0.18849E+05   -0.58941E+05111552   0.222E+03
DAV:   2     0.203307600704E+04   -0.16816E+05   -0.16064E+05110208   0.643E+02
DAV:   3    -0.677937478860E+03   -0.27110E+04   -0.22134E+04110208   0.257E+02
DAV:   4    -0.908639232360E+03   -0.23070E+03   -0.21655E+03118152   0.813E+01
DAV:   5    -0.915543964147E+03   -0.69047E+01   -0.68499E+01128560   0.146E+01    0.118E+02
DAV:   6    -0.872185650404E+03    0.43358E+02   -0.10522E+03118112   0.923E+01    0.151E+02
DAV:   7    -0.106464671380E+04   -0.19246E+03   -0.40430E+02120352   0.113E+02    0.219E+02
DAV:   8    -0.873400592148E+03    0.19125E+03   -0.16281E+02129400   0.652E+01    0.128E+02
DAV:   9    -0.816197876049E+03    0.57203E+02   -0.94483E+01139264   0.581E+01    0.857E+01
DAV:  10    -0.887819865756E+03   -0.71622E+02   -0.83066E+01134408   0.601E+01    0.143E+02
DAV:  11    -0.805240577421E+03    0.82579E+02   -0.42354E+01129344   0.381E+01    0.637E+01
DAV:  12    -0.792398543842E+03    0.12842E+02   -0.17940E+01128096   0.252E+01    0.376E+01
DAV:  13    -0.795653692311E+03   -0.32551E+01   -0.12004E+01132296   0.190E+01    0.440E+01
DAV:  14    -0.793217209839E+03    0.24365E+01   -0.77467E+00119160   0.158E+01    0.278E+01
DAV:  15    -0.792697559661E+03    0.51965E+00   -0.32330E+00122688   0.106E+01    0.220E+01
DAV:  16    -0.793200628406E+03   -0.50307E+00   -0.16310E+00136208   0.702E+00    0.205E+01
DAV:  17    -0.793435460362E+03   -0.23483E+00   -0.13242E+00122064   0.660E+00    0.185E+01
DAV:  18    -0.794076497304E+03   -0.64104E+00   -0.92765E-01121712   0.534E+00    0.185E+01
DAV:  19    -0.794383548799E+03   -0.30705E+00   -0.82475E-01126544   0.486E+00    0.159E+01
--------------------------------------------------------------------------
Primary job  terminated normally, but 1 process returned
a non-zero exit code. Per user-direction, the job has been aborted.
--------------------------------------------------------------------------
--------------------------------------------------------------------------
mpirun noticed that process rank 0 with PID 0 on node student3-ThinkStation-P3-Tower exited on signal 9 (Killed).
--------------------------------------------------------------------------
