       N       E                     dE             d eps       ncg     rms          rms(c)
DAV:   1     0.330384011672E+03    0.33038E+03   -0.20294E+04 10064   0.204E+03
DAV:   2    -0.107311457860E+02   -0.34112E+03   -0.32959E+03  9456   0.439E+02
DAV:   3    -0.330009167965E+02   -0.22270E+02   -0.20545E+02  9908   0.136E+02
DAV:   4    -0.335426617008E+02   -0.54174E+00   -0.53647E+00 10372   0.220E+01
DAV:   5    -0.335644157293E+02   -0.21754E-01   -0.21750E-01 13424   0.372E+00    0.206E+01
DAV:   6    -0.302827054804E+02    0.32817E+01   -0.44045E+01  9680   0.806E+01    0.158E+01
DAV:   7    -0.321702060048E+02   -0.18875E+01   -0.11559E+01 10504   0.628E+01    0.296E+01
DAV:   8    -0.293845940457E+02    0.27856E+01   -0.17525E+01 11336   0.411E+01    0.752E+00
DAV:   9    -0.292835577327E+02    0.10104E+00   -0.39116E-01 10964   0.912E+00    0.421E+00
DAV:  10    -0.292910087581E+02   -0.74510E-02   -0.10233E-01 12844   0.321E+00    0.206E+00
DAV:  11    -0.293034421905E+02   -0.12433E-01   -0.40610E-02 12348   0.231E+00    0.926E-01
DAV:  12    -0.293028681118E+02    0.57408E-03   -0.60910E-03 11516   0.955E-01    0.609E-01
DAV:  13    -0.293025076341E+02    0.36048E-03   -0.31407E-03 13544   0.663E-01    0.190E-01
DAV:  14    -0.293025050996E+02    0.25345E-05   -0.35676E-04  9980   0.235E-01    0.704E-02
DAV:  15    -0.293025118478E+02   -0.67482E-05   -0.37646E-05 12324   0.722E-02    0.282E-02
DAV:  16    -0.293025145795E+02   -0.27317E-05   -0.81156E-06 10860   0.490E-02    0.982E-03
DAV:  17    -0.293025132618E+02    0.13178E-05   -0.24655E-06  6848   0.211E-02    0.907E-03
DAV:  18    -0.293025126339E+02    0.62790E-06   -0.47356E-07  5308   0.114E-02
   1 F= -.29302513E+02 E0= -.29302588E+02  d E =0.225177E-03  mag=     7.5249
