 vasp.6.5.1 10Mar25 (build May 15 2026 23:14:27) complex                         
 executed on              LinuxNV date 2026.06.02  12:48:31
 running    1 mpi-ranks, on    1 nodes
 distrk:  each k-point on    1 cores,    1 groups
 distr:  one band on NCORE=   1 cores,    1 groups
 Offloading initialized ...    1 GPUs detected


--------------------------------------------------------------------------------------------------------


 INCAR:
   SYSTEM = SCF
   ENCUT = 520
   PREC = Accurate
   EDIFF = 1E-6
   NELM = 120
   ALGO = Normal
   ISMEAR = 1
   SIGMA = 0.10
   LASPH = .TRUE.
   LMAXMIX = 4
   ADDGRID = .TRUE.
   LREAL = Auto
   ISYM = 2
   IBRION = -1
   NSW = 0
   LWAVE = .FALSE.
   LCHARG = .TRUE.
   ISPIN = 2
   MAGMOM = 1*2.5 3*1.7

 POTCAR:    PAW_PBE Fe_pv 02Aug2007               
 POTCAR:    PAW_PBE Co 02Aug2007                  
 POTCAR:    PAW_PBE Fe_pv 02Aug2007               
   SHA256 =  5d22e414b1f82158bf2c7ecb8b97b28fd0923e48cadc1c3bf74d524558f5dd32 Fe_pv/POTCAR          
   COPYR  = (c) Copyright 02Aug2007 Georg Kresse                                                    
   COPYR  = This file is part of the software VASP. Any use, copying, and all other rights are regul
   COPYR  = If you do not have a valid VASP license, you may not use, copy or distribute this file. 
   VRHFIN =Fe:  3pd7s1                                                                              
   LEXCH  = PE                                                                                      
   EATOM  =  2457.4239 eV,  180.6156 Ry                                                             
                                                                                                    
   TITEL  = PAW_PBE Fe_pv 02Aug2007                                                                 
   LULTRA =        F    use ultrasoft PP ?                                                          
   IUNSCR =        1    unscreen: 0-lin 1-nonlin 2-no                                               
   RPACOR =    1.750    partial core radius                                                         
   POMASS =   55.847; ZVAL   =   14.000    mass and valenz                                          
   RCORE  =    2.200    outmost cutoff radius                                                       
   RWIGS  =    2.200; RWIGS  =    1.164    wigner-seitz radius (au A)                               
   ENMAX  =  293.238; ENMIN  =  219.928 eV                                                          
   ICORE  =        3    local potential                                                             
   LCOR   =        T    correct aug charges                                                         
   LPAW   =        T    paw PP                                                                      
   EAUG   =  578.342                                                                                
   DEXC   =    0.000                                                                                
   RMAX   =    2.249    core radius for proj-oper                                                   
   RAUG   =    1.300    factor for augmentation sphere                                              
   RDEP   =    2.296    radius for radial grids                                                     
   RDEPT  =    1.766    core radius for aug-charge                                                  
                                                                                                    
   Atomic configuration                                                                             
    8 entries                                                                                       
     n  l   j            E        occ.                                                              
     1  0  0.50     -6993.8440   2.0000                                                             
     2  0  0.50      -814.6047   2.0000                                                             
     2  1  1.50      -693.3689   6.0000                                                             
     3  0  0.50       -89.4732   2.0000                                                             
     3  1  1.50       -55.6373   6.0000                                                             
     3  2  2.50        -3.8151   7.0000                                                             
     4  0  0.50        -4.2551   1.0000                                                             
     4  3  2.50        -1.3606   0.0000                                                             
   Description                                                                                      
     l       E           TYP  RCUT    TYP  RCUT                                                     
     1    -55.6372668     23  2.000                                                                 
     1     -5.4423304     23  2.000                                                                 
     2     -3.8151096     23  2.200                                                                 
     2     -5.1756922     23  2.200                                                                 
     0     -4.2550951     23  2.200                                                                 
     0     27.2116520     23  2.200                                                                 
     3     -1.3605826     23  2.200                                                                 
  local pseudopotential read in
  partial core-charges read in
  partial kinetic energy density read in
  atomic valenz-charges read in
  non local Contribution for L=            1  read in
    real space projection operators read in
  non local Contribution for L=            1  read in
    real space projection operators read in
  non local Contribution for L=            2  read in
    real space projection operators read in
  non local Contribution for L=            2  read in
    real space projection operators read in
  non local Contribution for L=            0  read in
    real space projection operators read in
  non local Contribution for L=            0  read in
    real space projection operators read in
    PAW grid and wavefunctions read in
 
   number of l-projection  operators is LMAX  =            6
   number of lm-projection operators is LMMAX =           18
 
 POTCAR:    PAW_PBE Co 02Aug2007                  
   SHA256 =  0e690c60710354995174544f52f9f2c30879afabeffe3b3fbd4001cb294e56d4 Co/POTCAR             
   COPYR  = (c) Copyright 02Aug2007 Georg Kresse                                                    
   COPYR  = This file is part of the software VASP. Any use, copying, and all other rights are regul
   COPYR  = If you do not have a valid VASP license, you may not use, copy or distribute this file. 
   VRHFIN =Co: d8 s1                                                                                
   LEXCH  = PE                                                                                      
   EATOM  =   813.3670 eV,   59.7808 Ry                                                             
                                                                                                    
   TITEL  = PAW_PBE Co 02Aug2007                                                                    
   LULTRA =        F    use ultrasoft PP ?                                                          
   IUNSCR =        1    unscreen: 0-lin 1-nonlin 2-no                                               
   RPACOR =    2.000    partial core radius                                                         
   POMASS =   58.933; ZVAL   =    9.000    mass and valenz                                          
   RCORE  =    2.300    outmost cutoff radius                                                       
   RWIGS  =    2.460; RWIGS  =    1.302    wigner-seitz radius (au A)                               
   ENMAX  =  267.968; ENMIN  =  200.976 eV                                                          
   RCLOC  =    1.203    cutoff for local pot                                                        
   LCOR   =        T    correct aug charges                                                         
   LPAW   =        T    paw PP                                                                      
   EAUG   =  477.818                                                                                
   DEXC   =    0.000                                                                                
   RMAX   =    2.360    core radius for proj-oper                                                   
   RAUG   =    1.300    factor for augmentation sphere                                              
   RDEP   =    2.393    radius for radial grids                                                     
   RDEPT  =    1.864    core radius for aug-charge                                                  
                                                                                                    
   Atomic configuration                                                                             
    9 entries                                                                                       
     n  l   j            E        occ.                                                              
     1  0  0.50     -7587.6674   2.0000                                                             
     2  0  0.50      -893.6084   2.0000                                                             
     2  1  1.50      -764.5805   6.0000                                                             
     3  0  0.50       -97.5973   2.0000                                                             
     3  1  1.50       -60.9648   6.0000                                                             
     3  2  2.50        -4.2382   8.0000                                                             
     4  0  0.50        -4.3746   1.0000                                                             
     4  1  1.50        -4.0817   0.0000                                                             
     4  3  2.50        -1.3606   0.0000                                                             
   Description                                                                                      
     l       E           TYP  RCUT    TYP  RCUT                                                     
     2     -4.2382362     23  2.300                                                                 
     2     -5.5988188     23  2.300                                                                 
     0     -4.3745797     23  2.300                                                                 
     0      5.7660125     23  2.300                                                                 
     1     -2.7211652     23  2.300                                                                 
     1     16.9860234     23  2.300                                                                 
  local pseudopotential read in
  partial core-charges read in
  partial kinetic energy density read in
  atomic valenz-charges read in
  non local Contribution for L=            2  read in
    real space projection operators read in
  non local Contribution for L=            2  read in
    real space projection operators read in
  non local Contribution for L=            0  read in
    real space projection operators read in
  non local Contribution for L=            0  read in
    real space projection operators read in
  non local Contribution for L=            1  read in
    real space projection operators read in
  non local Contribution for L=            1  read in
    real space projection operators read in
    PAW grid and wavefunctions read in
 
   number of l-projection  operators is LMAX  =            6
   number of lm-projection operators is LMMAX =           18
 
 -----------------------------------------------------------------------------
|                                                                             |
|               ----> ADVICE to this user running VASP <----                  |
|                                                                             |
|     You have a (more or less) 'small supercell' and for smaller cells       |
|     it is recommended to use the reciprocal-space projection scheme!        |
|     The real-space optimization is not efficient for small cells and it     |
|     is also less accurate ...                                               |
|     Therefore, set LREAL=.FALSE. in the INCAR file.                         |
|                                                                             |
 -----------------------------------------------------------------------------

 Optimization of the real space projectors (new method)

 maximal supplied QI-value         = 17.01
 optimisation between [QCUT,QGAM] = [ 11.57, 23.30] = [ 37.45,152.03] Ry 
 Optimized for a Real-space Cutoff    1.45 Angstroem

   l    n(q)    QCUT    max X(q) W(low)/X(q) W(high)/X(q)  e(spline) 
   1     10    11.565     4.267    0.91E-04    0.15E-03    0.13E-06
   1     10    11.565     5.750    0.14E-03    0.22E-03    0.20E-06
   2      9    11.565    53.656    0.13E-03    0.57E-04    0.16E-06
   2      9    11.565    49.521    0.13E-03    0.59E-04    0.16E-06
   0     10    11.565    31.246    0.61E-04    0.74E-05    0.89E-07
   0     10    11.565    12.201    0.44E-04    0.68E-05    0.74E-07
 Optimization of the real space projectors (new method)

 maximal supplied QI-value         = 16.25
 optimisation between [QCUT,QGAM] = [ 11.54, 23.24] = [ 37.28,151.24] Ry 
 Optimized for a Real-space Cutoff    1.45 Angstroem

   l    n(q)    QCUT    max X(q) W(low)/X(q) W(high)/X(q)  e(spline) 
   2      9    11.539    65.824    0.19E-03    0.47E-04    0.16E-06
   2      9    11.539    61.429    0.20E-03    0.48E-04    0.16E-06
   0     10    11.539    56.174    0.76E-04    0.45E-04    0.23E-06
   0     10    11.539    31.263    0.69E-04    0.41E-04    0.21E-06
   1     10    11.539    19.828    0.78E-04    0.14E-03    0.70E-07
   1     10    11.539    15.139    0.65E-04    0.12E-03    0.64E-07
  PAW_PBE Fe_pv 02Aug2007               :
 energy of atom  1       EATOM=-2457.4239
 kinetic energy error for atom=    0.0062 (will be added to EATOM!!)
  PAW_PBE Co 02Aug2007                  :
 energy of atom  2       EATOM= -813.3670
 kinetic energy error for atom=    0.0028 (will be added to EATOM!!)
 
 
 POSCAR: L1_2 FeCo3 volume scan, a = 3.580 A
  positions in direct lattice
  No initial velocities read in


 exchange-correlation table for PE
   RHO(1)=    0.500       N(1)  =     2000
   RHO(2)=  100.500       N(2)  =     4000
 


--------------------------------------------------------------------------------------------------------


 ion  position               nearest neighbor table
   1  0.000  0.000  0.000-   2 2.53   3 2.53   4 2.53   3 2.53   4 2.53   2 2.53   4 2.53   4 2.53
                             2 2.53   3 2.53   3 2.53   2 2.53
   2  0.500  0.500  0.000-   1 2.53   3 2.53   4 2.53   3 2.53   4 2.53   1 2.53   3 2.53   3 2.53
                             1 2.53   4 2.53   4 2.53   1 2.53
   3  0.500  0.000  0.500-   1 2.53   2 2.53   4 2.53   1 2.53   2 2.53   2 2.53   4 2.53   2 2.53
                             1 2.53   4 2.53   1 2.53   4 2.53
   4  0.000  0.500  0.500-   1 2.53   2 2.53   3 2.53   1 2.53   2 2.53   1 2.53   3 2.53   1 2.53
                             2 2.53   3 2.53   2 2.53   3 2.53
 
  LATTYP: Found a simple cubic cell.
 ALAT       =     3.5800000000
  
  Lattice vectors:
  
 A1 = (   3.5800000000,   0.0000000000,   0.0000000000)
 A2 = (   0.0000000000,   3.5800000000,   0.0000000000)
 A3 = (   0.0000000000,   0.0000000000,   3.5800000000)


Analysis of symmetry for initial positions (statically):
=====================================================================
 Subroutine PRICEL returns:
 Original cell was already a primitive cell.
 

 Routine SETGRP: Setting up the symmetry group for a 
 simple cubic supercell.


 Subroutine GETGRP returns: Found 48 space group operations
 (whereof 48 operations were pure point group operations)
 out of a pool of 48 trial point group operations.


The static configuration has the point symmetry O_h .


Analysis of symmetry for dynamics (positions and initial velocities):
=====================================================================
 Subroutine PRICEL returns:
 Original cell was already a primitive cell.
 

 Routine SETGRP: Setting up the symmetry group for a 
 simple cubic supercell.


 Subroutine GETGRP returns: Found 48 space group operations
 (whereof 48 operations were pure point group operations)
 out of a pool of 48 trial point group operations.


The dynamic configuration has the point symmetry O_h .


Analysis of structural, dynamic, and magnetic symmetry:
=====================================================================
 Subroutine PRICEL returns:
 Original cell was already a primitive cell.
 

 Routine SETGRP: Setting up the symmetry group for a 
 simple cubic supercell.


 Subroutine GETGRP returns: Found 48 space group operations
 (whereof 48 operations were pure point group operations)
 out of a pool of 48 trial point group operations.


The overall configuration has the point symmetry O_h .


 Subroutine INISYM returns: Found 48 space group operations
 (whereof 48 operations are pure point group operations),
 and found     1 'primitive' translations


----------------------------------------------------------------------------------------

                                     Primitive cell                                     

  volume of cell :      45.8827

  direct lattice vectors                    reciprocal lattice vectors
     3.580000000  0.000000000  0.000000000     0.279329609  0.000000000  0.000000000
     0.000000000  3.580000000  0.000000000     0.000000000  0.279329609  0.000000000
     0.000000000  0.000000000  3.580000000     0.000000000  0.000000000  0.279329609

  length of vectors
     3.580000000  3.580000000  3.580000000     0.279329609  0.279329609  0.279329609

  position of ions in fractional coordinates (direct lattice)
     0.000000000  0.000000000  0.000000000
     0.500000000  0.500000000  0.000000000
     0.500000000  0.000000000  0.500000000
     0.000000000  0.500000000  0.500000000

  ion indices of the primitive-cell ions
   primitive index   ion index
                 1           1
                 2           2
                 3           3
                 4           4

----------------------------------------------------------------------------------------

 
 
 KPOINTS: Automatic mesh                          

Automatic generation of k-mesh.
 Grid dimensions read from file:
 generate k-points for:   13   13   13

 Generating k-lattice:

  Cartesian coordinates                     Fractional coordinates (reciprocal lattice)
     0.021486893  0.000000000  0.000000000     0.076923077  0.000000000  0.000000000
     0.000000000  0.021486893  0.000000000     0.000000000  0.076923077  0.000000000
     0.000000000  0.000000000  0.021486893     0.000000000  0.000000000  0.076923077

  Length of vectors
     0.021486893  0.021486893  0.021486893

  Shift w.r.t. Gamma in fractional coordinates (k-lattice)
     0.000000000  0.000000000  0.000000000

 
 Subroutine IBZKPT returns following result:
 ===========================================
 
 Found     84 irreducible k-points:
 
 Following reciprocal coordinates:
            Coordinates               Weight
  0.000000  0.000000  0.000000      1.000000
  0.076923  0.000000  0.000000      6.000000
  0.153846  0.000000  0.000000      6.000000
  0.230769  0.000000  0.000000      6.000000
  0.307692  0.000000  0.000000      6.000000
  0.384615  0.000000  0.000000      6.000000
  0.461538  0.000000  0.000000      6.000000
  0.076923  0.076923  0.000000     12.000000
  0.153846  0.076923  0.000000     24.000000
  0.230769  0.076923  0.000000     24.000000
  0.307692  0.076923  0.000000     24.000000
  0.384615  0.076923  0.000000     24.000000
  0.461538  0.076923  0.000000     24.000000
  0.153846  0.153846  0.000000     12.000000
  0.230769  0.153846  0.000000     24.000000
  0.307692  0.153846  0.000000     24.000000
  0.384615  0.153846  0.000000     24.000000
  0.461538  0.153846  0.000000     24.000000
  0.230769  0.230769  0.000000     12.000000
  0.307692  0.230769  0.000000     24.000000
  0.384615  0.230769  0.000000     24.000000
  0.461538  0.230769  0.000000     24.000000
  0.307692  0.307692  0.000000     12.000000
  0.384615  0.307692  0.000000     24.000000
  0.461538  0.307692  0.000000     24.000000
  0.384615  0.384615  0.000000     12.000000
  0.461538  0.384615  0.000000     24.000000
  0.461538  0.461538  0.000000     12.000000
  0.076923  0.076923  0.076923      8.000000
  0.153846  0.076923  0.076923     24.000000
  0.230769  0.076923  0.076923     24.000000
  0.307692  0.076923  0.076923     24.000000
  0.384615  0.076923  0.076923     24.000000
  0.461538  0.076923  0.076923     24.000000
  0.153846  0.153846  0.076923     24.000000
  0.230769  0.153846  0.076923     48.000000
  0.307692  0.153846  0.076923     48.000000
  0.384615  0.153846  0.076923     48.000000
  0.461538  0.153846  0.076923     48.000000
  0.230769  0.230769  0.076923     24.000000
  0.307692  0.230769  0.076923     48.000000
  0.384615  0.230769  0.076923     48.000000
  0.461538  0.230769  0.076923     48.000000
  0.307692  0.307692  0.076923     24.000000
  0.384615  0.307692  0.076923     48.000000
  0.461538  0.307692  0.076923     48.000000
  0.384615  0.384615  0.076923     24.000000
  0.461538  0.384615  0.076923     48.000000
  0.461538  0.461538  0.076923     24.000000
  0.153846  0.153846  0.153846      8.000000
  0.230769  0.153846  0.153846     24.000000
  0.307692  0.153846  0.153846     24.000000
  0.384615  0.153846  0.153846     24.000000
  0.461538  0.153846  0.153846     24.000000
  0.230769  0.230769  0.153846     24.000000
  0.307692  0.230769  0.153846     48.000000
  0.384615  0.230769  0.153846     48.000000
  0.461538  0.230769  0.153846     48.000000
  0.307692  0.307692  0.153846     24.000000
  0.384615  0.307692  0.153846     48.000000
  0.461538  0.307692  0.153846     48.000000
  0.384615  0.384615  0.153846     24.000000
  0.461538  0.384615  0.153846     48.000000
  0.461538  0.461538  0.153846     24.000000
  0.230769  0.230769  0.230769      8.000000
  0.307692  0.230769  0.230769     24.000000
  0.384615  0.230769  0.230769     24.000000
  0.461538  0.230769  0.230769     24.000000
  0.307692  0.307692  0.230769     24.000000
  0.384615  0.307692  0.230769     48.000000
  0.461538  0.307692  0.230769     48.000000
  0.384615  0.384615  0.230769     24.000000
  0.461538  0.384615  0.230769     48.000000
  0.461538  0.461538  0.230769     24.000000
  0.307692  0.307692  0.307692      8.000000
  0.384615  0.307692  0.307692     24.000000
  0.461538  0.307692  0.307692     24.000000
  0.384615  0.384615  0.307692     24.000000
  0.461538  0.384615  0.307692     48.000000
  0.461538  0.461538  0.307692     24.000000
  0.384615  0.384615  0.384615      8.000000
  0.461538  0.384615  0.384615     24.000000
  0.461538  0.461538  0.384615     24.000000
  0.461538  0.461538  0.461538      8.000000
 
 Following cartesian coordinates:
            Coordinates               Weight
  0.000000  0.000000  0.000000      1.000000
  0.021487  0.000000  0.000000      6.000000
  0.042974  0.000000  0.000000      6.000000
  0.064461  0.000000  0.000000      6.000000
  0.085948  0.000000  0.000000      6.000000
  0.107434  0.000000  0.000000      6.000000
  0.128921  0.000000  0.000000      6.000000
  0.021487  0.021487  0.000000     12.000000
  0.042974  0.021487  0.000000     24.000000
  0.064461  0.021487  0.000000     24.000000
  0.085948  0.021487  0.000000     24.000000
  0.107434  0.021487  0.000000     24.000000
  0.128921  0.021487  0.000000     24.000000
  0.042974  0.042974  0.000000     12.000000
  0.064461  0.042974  0.000000     24.000000
  0.085948  0.042974  0.000000     24.000000
  0.107434  0.042974  0.000000     24.000000
  0.128921  0.042974  0.000000     24.000000
  0.064461  0.064461  0.000000     12.000000
  0.085948  0.064461  0.000000     24.000000
  0.107434  0.064461  0.000000     24.000000
  0.128921  0.064461  0.000000     24.000000
  0.085948  0.085948  0.000000     12.000000
  0.107434  0.085948  0.000000     24.000000
  0.128921  0.085948  0.000000     24.000000
  0.107434  0.107434  0.000000     12.000000
  0.128921  0.107434  0.000000     24.000000
  0.128921  0.128921  0.000000     12.000000
  0.021487  0.021487  0.021487      8.000000
  0.042974  0.021487  0.021487     24.000000
  0.064461  0.021487  0.021487     24.000000
  0.085948  0.021487  0.021487     24.000000
  0.107434  0.021487  0.021487     24.000000
  0.128921  0.021487  0.021487     24.000000
  0.042974  0.042974  0.021487     24.000000
  0.064461  0.042974  0.021487     48.000000
  0.085948  0.042974  0.021487     48.000000
  0.107434  0.042974  0.021487     48.000000
  0.128921  0.042974  0.021487     48.000000
  0.064461  0.064461  0.021487     24.000000
  0.085948  0.064461  0.021487     48.000000
  0.107434  0.064461  0.021487     48.000000
  0.128921  0.064461  0.021487     48.000000
  0.085948  0.085948  0.021487     24.000000
  0.107434  0.085948  0.021487     48.000000
  0.128921  0.085948  0.021487     48.000000
  0.107434  0.107434  0.021487     24.000000
  0.128921  0.107434  0.021487     48.000000
  0.128921  0.128921  0.021487     24.000000
  0.042974  0.042974  0.042974      8.000000
  0.064461  0.042974  0.042974     24.000000
  0.085948  0.042974  0.042974     24.000000
  0.107434  0.042974  0.042974     24.000000
  0.128921  0.042974  0.042974     24.000000
  0.064461  0.064461  0.042974     24.000000
  0.085948  0.064461  0.042974     48.000000
  0.107434  0.064461  0.042974     48.000000
  0.128921  0.064461  0.042974     48.000000
  0.085948  0.085948  0.042974     24.000000
  0.107434  0.085948  0.042974     48.000000
  0.128921  0.085948  0.042974     48.000000
  0.107434  0.107434  0.042974     24.000000
  0.128921  0.107434  0.042974     48.000000
  0.128921  0.128921  0.042974     24.000000
  0.064461  0.064461  0.064461      8.000000
  0.085948  0.064461  0.064461     24.000000
  0.107434  0.064461  0.064461     24.000000
  0.128921  0.064461  0.064461     24.000000
  0.085948  0.085948  0.064461     24.000000
  0.107434  0.085948  0.064461     48.000000
  0.128921  0.085948  0.064461     48.000000
  0.107434  0.107434  0.064461     24.000000
  0.128921  0.107434  0.064461     48.000000
  0.128921  0.128921  0.064461     24.000000
  0.085948  0.085948  0.085948      8.000000
  0.107434  0.085948  0.085948     24.000000
  0.128921  0.085948  0.085948     24.000000
  0.107434  0.107434  0.085948     24.000000
  0.128921  0.107434  0.085948     48.000000
  0.128921  0.128921  0.085948     24.000000
  0.107434  0.107434  0.107434      8.000000
  0.128921  0.107434  0.107434     24.000000
  0.128921  0.128921  0.107434     24.000000
  0.128921  0.128921  0.128921      8.000000
 


--------------------------------------------------------------------------------------------------------




 Dimension of arrays:
   k-points           NKPTS =     84   k-points in BZ     NKDIM =     84   number of bands    NBANDS=     28
   number of dos      NEDOS =    301   number of ions     NIONS =      4
   non local maximal  LDIM  =      6   non local SUM 2l+1 LMDIM =     18
   total plane-waves  NPLWV =  21952
   max r-space proj   IRMAX =   6106   max aug-charges    IRDMAX= 151134
   dimension x,y,z NGX =    28 NGY =   28 NGZ =   28
   dimension x,y,z NGXF=    56 NGYF=   56 NGZF=   56
   support grid    NGXF=   112 NGYF=  112 NGZF=  112
   ions per type =               1   3
   NGX,Y,Z   is equivalent  to a cutoff of  13.00, 13.00, 13.00 a.u.
   NGXF,Y,Z  is equivalent  to a cutoff of  26.00, 26.00, 26.00 a.u.

 SYSTEM =  SCF                                     
 POSCAR =  L1_2 FeCo3 volume scan, a = 3.580 A     

 Startparameter for this run:
   NWRITE =      2    write-flag & timer
   PREC   = accura    normal or accurate (medium, high low for compatibility)
   ISTART =      0    job   : 0-new  1-cont  2-samecut
   ICHARG =      2    charge: 1-file 2-atom 10-const
   ISPIN  =      2    spin polarized calculation?
   LNONCOLLINEAR =      F non collinear calculations
   LSORBIT =      F    spin-orbit coupling
   INIWAV =      1    electr: 0-lowe 1-rand  2-diag
   LASPH  =      T    aspherical Exc in radial PAW
 Electronic Relaxation 1
   ENCUT  =  520.0 eV  38.22 Ry    6.18 a.u.   6.66  6.66  6.66*2*pi/ulx,y,z
   ENINI  =  520.0     initial cutoff
   ENAUG  =  578.3 eV  augmentation charge cutoff
   NELM   =    120;   NELMIN=  2; NELMDL=  0     # of ELM steps 
   EDIFF  = 0.1E-05   stopping-criterion for ELM
   LREAL  =      T    real-space projection
   NLSPLINE    = F    spline interpolate recip. space projectors
   LCOMPAT=      F    compatible to vasp.4.4
   GGA_COMPAT  = T    GGA compatible to vasp.4.4-vasp.4.6
   LMAXPAW     = -100 max onsite density
   LMAXMIX     =    4 max onsite mixed and CHGCAR
   VOSKOWN=      0    Vosko Wilk Nusair interpolation
   ROPT   =   -0.00025  -0.00025
 Ionic relaxation
   EDIFFG = 0.1E-04   stopping-criterion for IOM
   NSW    =      0    number of steps for IOM
   NBLOCK =      1;   KBLOCK =      1    inner block; outer block 
   IBRION =     -1    ionic relax: 0-MD 1-quasi-New 2-CG
   NFREE  =      0    steps in history (QN), initial steepest desc. (CG)
   ISIF   =      2    stress and relaxation
   IWAVPR =     10    prediction:  0-non 1-charg 2-wave 3-comb
   ISYM   =      2    0-nonsym 1-usesym 2-fastsym
   LCORR  =      T    Harris-Foulkes like correction to forces

   POTIM  = 0.5000    time-step for ionic-motion
   TEIN   =    0.0    initial temperature
   TEBEG  =    0.0;   TEEND  =   0.0 temperature during run
   SMASS  =  -3.00    Nose mass-parameter (am)
   estimated Nose-frequenzy (Omega)   =  0.10E-29 period in steps = 0.13E+47 mass=  -0.293E-27a.u.
   SCALEE = 1.0000    scale energy and forces
   NPACO  =    256;   APACO  = 10.0  distance and # of slots for P.C.
   PSTRESS=    0.0 pullay stress

  Mass of Ions in am
   POMASS =  55.85 58.93
  Ionic Valenz
   ZVAL   =  14.00  9.00
  Atomic Wigner-Seitz radii
   RWIGS  =  -1.00 -1.00
  virtual crystal weights 
   VCA    =   1.00  1.00
   NELECT =      41.0000    total number of electrons
   NUPDOWN=      -1.0000    fix difference up-down

 DOS related values:
   EMIN   =  10.00;   EMAX   =-10.00  energy-range for DOS
   EFERMI =   0.00;   METHOD = LEGACY      
   ISMEAR =     1;   SIGMA  =   0.10  broadening in eV -4-tet -1-fermi 0-gaus
   EFERMI_NEDOS =   21; number of points for ismear=-14 and -15

 Electronic relaxation 2 (details)
   IALGO  =     38    algorithm
   LDIAG  =      T    sub-space diagonalisation (order eigenvalues)
   LSUBROT=      F    optimize rotation matrix (better conditioning)
   LROBUST=      F    robust break criterion during scf (extrapolated energy error)
   ISEARCH=      0    line search for conjugate gradient (0, 1=use gradient)
   TURBO    =      0    0=normal 1=particle mesh
   IRESTART =      0    0=no restart 2=restart with 2 vectors
   NREBOOT  =      0    no. of reboots
   NMIN     =      0    reboot dimension
   EREF     =   0.00    reference energy to select bands
   IMIX   =      4    mixing-type and parameters
     AMIX     =   0.40;   BMIX     =  1.00
     AMIX_MAG =   1.60;   BMIX_MAG =  1.00
     AMIN     =   0.10
     WC   =   100.;   INIMIX=   1;  MIXPRE=   1;  MAXMIX= -45

 Intra band minimization:
   WEIMIN = 0.0000     energy-eigenvalue tresh-hold
   EBREAK =  0.89E-08  absolut break condition
   DEPER  =   0.30     relativ break condition  

   TIME   =   0.40     timestep for ELM

  volume/ion in A,a.u.               =      11.47        77.41
  Fermi-wavevector in a.u.,A,eV,Ry     =   1.576836  2.979787 33.829670  2.486411
  Thomas-Fermi vector in A             =   2.677609
 
 Write flags
   LWAVE        =      F    write WAVECAR
   LDOWNSAMPLE  =      F    k-point downsampling of WAVECAR
   LCHARG       =      T    write CHGCAR
   LVTOT        =      F    write LOCPOT, total local potential
   LVHAR        =      F    write LOCPOT, Hartree potential only
   WRT_POTENTIAL= false  ! write potential to hdf5 file
   LELF         =      F    write electronic localiz. function (ELF)
   LORBIT       =      0    0 simple, 1 ext, 2 COOP (PROOUT), +10 PAW based schemes


 Python interface
   PLUGINS active      =      F    recompile with -DPLUGINS to activate
 
 Dipole corrections
   LMONO      =      F    monopole corrections only (constant potential shift)
   LDIPOL     =      F    correct potential (dipole corrections)
   IDIPOL     =      0    1-x, 2-y, 3-z, 4-all directions 
   EPSILON    =  1.0000000 bulk dielectric constant
   LVACPOTAV  =      F  vacuum potentials using an averaging scheme for the charge density
   VACPOTFLAT =  0.1000000 required flatness to determine vacuum potential
 
Coulomb truncation method
  LTRUNCATE          =      F  Coulomb kernel truncation to be used

 
 Exchange correlation treatment:
   GGA     = PE    functional components
   XC_C    = 1    coefficients multiplying the functional components
   LIBXC   =     F    Libxc                    
   VOSKOWN =     0    Vosko Wilk Nusair interpolation
   LHFCALC =     F    Hartree Fock is set to
   LHFONE  =     F    Hartree Fock one center treatment
   AEXX    =    0.0000 exact exchange contribution

 Parameters of functionals:
   PE:
     No parameter
 
 Van der Waals corrections
   IVDW    =     0    specifies the selected vdW correction

 Linear response parameters
   LEPSILON=     F    determine dielectric tensor
   LRPA    =     F    only Hartree local field effects (RPA)
   LNABLA  =     F    use nabla operator in PAW spheres
   LVEL    =     F    velocity operator in full k-point grid
   CSHIFT  =0.1000    complex shift for real part using Kramers Kronig
   OMEGAMAX=  -1.0    maximum frequency
   DEG_THRESHOLD= 0.2000000E-02 threshold for treating states as degnerate
   RTIME   =   -0.100 relaxation time in fs
  (WPLASMAI=    0.000 imaginary part of plasma frequency in eV, 0.658/RTIME)
   DFIELD  = 0.0000000 0.0000000 0.0000000 field for delta impulse in time
 
  Optional k-point grid parameters
   LKPOINTS_OPT  =     F    use optional k-point grid
   KPOINTS_OPT_MODE=     1    mode for optional k-point grid
 
 Orbital magnetization related:
   ORBITALMAG=     F  switch on orbital magnetization
   LCHIMAG   =     F  perturbation theory with respect to B field
   DQ        =  0.001000  dq finite difference perturbation B field
   LLRAUG    =     F  two centre corrections for induced B field
   LBONE     =     F  B-component reconstruction in AE one-centre
   LVGVCALC  =     T  calculate vGv susceptibility
   LVGVAPPL  =     F  apply vGv susceptibility instead of pGv for G=0

 Random number generation:
   RANDOM_GENERATOR = DEFAULT
   PCG_SEED         = not used


--------------------------------------------------------------------------------------------------------


 Static calculation
 charge density and potential will be updated during run
 spin polarized calculation
 Variant of blocked Davidson
 Davidson routine will perform the subspace rotation
 perform sub-space diagonalisation
    after iterative eigenvector-optimisation
 modified Broyden-mixing scheme, WC =      100.0
 initial mixing is a Kerker type mixing with AMIX =  0.4000 and BMIX =      1.0000
 Hartree-type preconditioning will be used
 using additional bands             7
 real space projection scheme for non local part
 use partial core corrections
 calculate Harris-corrections to forces 
   (improved forces if not selfconsistent)
 use gradient corrections 
 use of overlap-Matrix (Vanderbilt PP)
 Methfessel and Paxton  Order N= 1 SIGMA  =   0.10


--------------------------------------------------------------------------------------------------------


  energy-cutoff  :      520.00
  volume of cell :       45.88
      direct lattice vectors                 reciprocal lattice vectors
     3.580000000  0.000000000  0.000000000     0.279329609  0.000000000  0.000000000
     0.000000000  3.580000000  0.000000000     0.000000000  0.279329609  0.000000000
     0.000000000  0.000000000  3.580000000     0.000000000  0.000000000  0.279329609

  length of vectors
     3.580000000  3.580000000  3.580000000     0.279329609  0.279329609  0.279329609


 
 k-points in units of 2pi/SCALE and weight: Automatic mesh                          
   0.00000000  0.00000000  0.00000000       0.000
   0.02148689  0.00000000  0.00000000       0.003
   0.04297379  0.00000000  0.00000000       0.003
   0.06446068  0.00000000  0.00000000       0.003
   0.08594757  0.00000000  0.00000000       0.003
   0.10743446  0.00000000  0.00000000       0.003
   0.12892136  0.00000000  0.00000000       0.003
   0.02148689  0.02148689  0.00000000       0.005
   0.04297379  0.02148689  0.00000000       0.011
   0.06446068  0.02148689  0.00000000       0.011
   0.08594757  0.02148689  0.00000000       0.011
   0.10743446  0.02148689  0.00000000       0.011
   0.12892136  0.02148689  0.00000000       0.011
   0.04297379  0.04297379  0.00000000       0.005
   0.06446068  0.04297379  0.00000000       0.011
   0.08594757  0.04297379  0.00000000       0.011
   0.10743446  0.04297379  0.00000000       0.011
   0.12892136  0.04297379  0.00000000       0.011
   0.06446068  0.06446068  0.00000000       0.005
   0.08594757  0.06446068  0.00000000       0.011
   0.10743446  0.06446068  0.00000000       0.011
   0.12892136  0.06446068  0.00000000       0.011
   0.08594757  0.08594757  0.00000000       0.005
   0.10743446  0.08594757  0.00000000       0.011
   0.12892136  0.08594757  0.00000000       0.011
   0.10743446  0.10743446  0.00000000       0.005
   0.12892136  0.10743446  0.00000000       0.011
   0.12892136  0.12892136  0.00000000       0.005
   0.02148689  0.02148689  0.02148689       0.004
   0.04297379  0.02148689  0.02148689       0.011
   0.06446068  0.02148689  0.02148689       0.011
   0.08594757  0.02148689  0.02148689       0.011
   0.10743446  0.02148689  0.02148689       0.011
   0.12892136  0.02148689  0.02148689       0.011
   0.04297379  0.04297379  0.02148689       0.011
   0.06446068  0.04297379  0.02148689       0.022
   0.08594757  0.04297379  0.02148689       0.022
   0.10743446  0.04297379  0.02148689       0.022
   0.12892136  0.04297379  0.02148689       0.022
   0.06446068  0.06446068  0.02148689       0.011
   0.08594757  0.06446068  0.02148689       0.022
   0.10743446  0.06446068  0.02148689       0.022
   0.12892136  0.06446068  0.02148689       0.022
   0.08594757  0.08594757  0.02148689       0.011
   0.10743446  0.08594757  0.02148689       0.022
   0.12892136  0.08594757  0.02148689       0.022
   0.10743446  0.10743446  0.02148689       0.011
   0.12892136  0.10743446  0.02148689       0.022
   0.12892136  0.12892136  0.02148689       0.011
   0.04297379  0.04297379  0.04297379       0.004
   0.06446068  0.04297379  0.04297379       0.011
   0.08594757  0.04297379  0.04297379       0.011
   0.10743446  0.04297379  0.04297379       0.011
   0.12892136  0.04297379  0.04297379       0.011
   0.06446068  0.06446068  0.04297379       0.011
   0.08594757  0.06446068  0.04297379       0.022
   0.10743446  0.06446068  0.04297379       0.022
   0.12892136  0.06446068  0.04297379       0.022
   0.08594757  0.08594757  0.04297379       0.011
   0.10743446  0.08594757  0.04297379       0.022
   0.12892136  0.08594757  0.04297379       0.022
   0.10743446  0.10743446  0.04297379       0.011
   0.12892136  0.10743446  0.04297379       0.022
   0.12892136  0.12892136  0.04297379       0.011
   0.06446068  0.06446068  0.06446068       0.004
   0.08594757  0.06446068  0.06446068       0.011
   0.10743446  0.06446068  0.06446068       0.011
   0.12892136  0.06446068  0.06446068       0.011
   0.08594757  0.08594757  0.06446068       0.011
   0.10743446  0.08594757  0.06446068       0.022
   0.12892136  0.08594757  0.06446068       0.022
   0.10743446  0.10743446  0.06446068       0.011
   0.12892136  0.10743446  0.06446068       0.022
   0.12892136  0.12892136  0.06446068       0.011
   0.08594757  0.08594757  0.08594757       0.004
   0.10743446  0.08594757  0.08594757       0.011
   0.12892136  0.08594757  0.08594757       0.011
   0.10743446  0.10743446  0.08594757       0.011
   0.12892136  0.10743446  0.08594757       0.022
   0.12892136  0.12892136  0.08594757       0.011
   0.10743446  0.10743446  0.10743446       0.004
   0.12892136  0.10743446  0.10743446       0.011
   0.12892136  0.12892136  0.10743446       0.011
   0.12892136  0.12892136  0.12892136       0.004
 
 k-points in reciprocal lattice and weights: Automatic mesh                          
   0.00000000  0.00000000  0.00000000       0.000
   0.07692308  0.00000000  0.00000000       0.003
   0.15384615  0.00000000  0.00000000       0.003
   0.23076923  0.00000000  0.00000000       0.003
   0.30769231  0.00000000  0.00000000       0.003
   0.38461538  0.00000000  0.00000000       0.003
   0.46153846  0.00000000  0.00000000       0.003
   0.07692308  0.07692308  0.00000000       0.005
   0.15384615  0.07692308  0.00000000       0.011
   0.23076923  0.07692308  0.00000000       0.011
   0.30769231  0.07692308  0.00000000       0.011
   0.38461538  0.07692308  0.00000000       0.011
   0.46153846  0.07692308  0.00000000       0.011
   0.15384615  0.15384615  0.00000000       0.005
   0.23076923  0.15384615  0.00000000       0.011
   0.30769231  0.15384615  0.00000000       0.011
   0.38461538  0.15384615  0.00000000       0.011
   0.46153846  0.15384615  0.00000000       0.011
   0.23076923  0.23076923  0.00000000       0.005
   0.30769231  0.23076923  0.00000000       0.011
   0.38461538  0.23076923  0.00000000       0.011
   0.46153846  0.23076923  0.00000000       0.011
   0.30769231  0.30769231  0.00000000       0.005
   0.38461538  0.30769231  0.00000000       0.011
   0.46153846  0.30769231  0.00000000       0.011
   0.38461538  0.38461538  0.00000000       0.005
   0.46153846  0.38461538  0.00000000       0.011
   0.46153846  0.46153846  0.00000000       0.005
   0.07692308  0.07692308  0.07692308       0.004
   0.15384615  0.07692308  0.07692308       0.011
   0.23076923  0.07692308  0.07692308       0.011
   0.30769231  0.07692308  0.07692308       0.011
   0.38461538  0.07692308  0.07692308       0.011
   0.46153846  0.07692308  0.07692308       0.011
   0.15384615  0.15384615  0.07692308       0.011
   0.23076923  0.15384615  0.07692308       0.022
   0.30769231  0.15384615  0.07692308       0.022
   0.38461538  0.15384615  0.07692308       0.022
   0.46153846  0.15384615  0.07692308       0.022
   0.23076923  0.23076923  0.07692308       0.011
   0.30769231  0.23076923  0.07692308       0.022
   0.38461538  0.23076923  0.07692308       0.022
   0.46153846  0.23076923  0.07692308       0.022
   0.30769231  0.30769231  0.07692308       0.011
   0.38461538  0.30769231  0.07692308       0.022
   0.46153846  0.30769231  0.07692308       0.022
   0.38461538  0.38461538  0.07692308       0.011
   0.46153846  0.38461538  0.07692308       0.022
   0.46153846  0.46153846  0.07692308       0.011
   0.15384615  0.15384615  0.15384615       0.004
   0.23076923  0.15384615  0.15384615       0.011
   0.30769231  0.15384615  0.15384615       0.011
   0.38461538  0.15384615  0.15384615       0.011
   0.46153846  0.15384615  0.15384615       0.011
   0.23076923  0.23076923  0.15384615       0.011
   0.30769231  0.23076923  0.15384615       0.022
   0.38461538  0.23076923  0.15384615       0.022
   0.46153846  0.23076923  0.15384615       0.022
   0.30769231  0.30769231  0.15384615       0.011
   0.38461538  0.30769231  0.15384615       0.022
   0.46153846  0.30769231  0.15384615       0.022
   0.38461538  0.38461538  0.15384615       0.011
   0.46153846  0.38461538  0.15384615       0.022
   0.46153846  0.46153846  0.15384615       0.011
   0.23076923  0.23076923  0.23076923       0.004
   0.30769231  0.23076923  0.23076923       0.011
   0.38461538  0.23076923  0.23076923       0.011
   0.46153846  0.23076923  0.23076923       0.011
   0.30769231  0.30769231  0.23076923       0.011
   0.38461538  0.30769231  0.23076923       0.022
   0.46153846  0.30769231  0.23076923       0.022
   0.38461538  0.38461538  0.23076923       0.011
   0.46153846  0.38461538  0.23076923       0.022
   0.46153846  0.46153846  0.23076923       0.011
   0.30769231  0.30769231  0.30769231       0.004
   0.38461538  0.30769231  0.30769231       0.011
   0.46153846  0.30769231  0.30769231       0.011
   0.38461538  0.38461538  0.30769231       0.011
   0.46153846  0.38461538  0.30769231       0.022
   0.46153846  0.46153846  0.30769231       0.011
   0.38461538  0.38461538  0.38461538       0.004
   0.46153846  0.38461538  0.38461538       0.011
   0.46153846  0.46153846  0.38461538       0.011
   0.46153846  0.46153846  0.46153846       0.004
 
 position of ions in fractional coordinates (direct lattice) 
   0.00000000  0.00000000  0.00000000
   0.50000000  0.50000000  0.00000000
   0.50000000  0.00000000  0.50000000
   0.00000000  0.50000000  0.50000000
 
 position of ions in cartesian coordinates  (Angst):
   0.00000000  0.00000000  0.00000000
   1.79000000  1.79000000  0.00000000
   1.79000000  0.00000000  1.79000000
   0.00000000  1.79000000  1.79000000
 


--------------------------------------------------------------------------------------------------------


 k-point     1 :   0.0000 0.0000 0.0000  plane waves:    1237
 k-point     2 :   0.0769 0.0000 0.0000  plane waves:    1237
 k-point     3 :   0.1538 0.0000 0.0000  plane waves:    1253
 k-point     4 :   0.2308 0.0000 0.0000  plane waves:    1245
 k-point     5 :   0.3077 0.0000 0.0000  plane waves:    1237
 k-point     6 :   0.3846 0.0000 0.0000  plane waves:    1230
 k-point     7 :   0.4615 0.0000 0.0000  plane waves:    1230
 k-point     8 :   0.0769 0.0769 0.0000  plane waves:    1245
 k-point     9 :   0.1538 0.0769 0.0000  plane waves:    1252
 k-point    10 :   0.2308 0.0769 0.0000  plane waves:    1252
 k-point    11 :   0.3077 0.0769 0.0000  plane waves:    1233
 k-point    12 :   0.3846 0.0769 0.0000  plane waves:    1227
 k-point    13 :   0.4615 0.0769 0.0000  plane waves:    1233
 k-point    14 :   0.1538 0.1538 0.0000  plane waves:    1253
 k-point    15 :   0.2308 0.1538 0.0000  plane waves:    1248
 k-point    16 :   0.3077 0.1538 0.0000  plane waves:    1239
 k-point    17 :   0.3846 0.1538 0.0000  plane waves:    1230
 k-point    18 :   0.4615 0.1538 0.0000  plane waves:    1225
 k-point    19 :   0.2308 0.2308 0.0000  plane waves:    1241
 k-point    20 :   0.3077 0.2308 0.0000  plane waves:    1238
 k-point    21 :   0.3846 0.2308 0.0000  plane waves:    1232
 k-point    22 :   0.4615 0.2308 0.0000  plane waves:    1237
 k-point    23 :   0.3077 0.3077 0.0000  plane waves:    1242
 k-point    24 :   0.3846 0.3077 0.0000  plane waves:    1236
 k-point    25 :   0.4615 0.3077 0.0000  plane waves:    1239
 k-point    26 :   0.3846 0.3846 0.0000  plane waves:    1232
 k-point    27 :   0.4615 0.3846 0.0000  plane waves:    1233
 k-point    28 :   0.4615 0.4615 0.0000  plane waves:    1238
 k-point    29 :   0.0769 0.0769 0.0769  plane waves:    1240
 k-point    30 :   0.1538 0.0769 0.0769  plane waves:    1252
 k-point    31 :   0.2308 0.0769 0.0769  plane waves:    1253
 k-point    32 :   0.3077 0.0769 0.0769  plane waves:    1237
 k-point    33 :   0.3846 0.0769 0.0769  plane waves:    1224
 k-point    34 :   0.4615 0.0769 0.0769  plane waves:    1230
 k-point    35 :   0.1538 0.1538 0.0769  plane waves:    1248
 k-point    36 :   0.2308 0.1538 0.0769  plane waves:    1241
 k-point    37 :   0.3077 0.1538 0.0769  plane waves:    1236
 k-point    38 :   0.3846 0.1538 0.0769  plane waves:    1230
 k-point    39 :   0.4615 0.1538 0.0769  plane waves:    1230
 k-point    40 :   0.2308 0.2308 0.0769  plane waves:    1238
 k-point    41 :   0.3077 0.2308 0.0769  plane waves:    1235
 k-point    42 :   0.3846 0.2308 0.0769  plane waves:    1230
 k-point    43 :   0.4615 0.2308 0.0769  plane waves:    1239
 k-point    44 :   0.3077 0.3077 0.0769  plane waves:    1238
 k-point    45 :   0.3846 0.3077 0.0769  plane waves:    1234
 k-point    46 :   0.4615 0.3077 0.0769  plane waves:    1229
 k-point    47 :   0.3846 0.3846 0.0769  plane waves:    1238
 k-point    48 :   0.4615 0.3846 0.0769  plane waves:    1238
 k-point    49 :   0.4615 0.4615 0.0769  plane waves:    1238
 k-point    50 :   0.1538 0.1538 0.1538  plane waves:    1243
 k-point    51 :   0.2308 0.1538 0.1538  plane waves:    1240
 k-point    52 :   0.3077 0.1538 0.1538  plane waves:    1241
 k-point    53 :   0.3846 0.1538 0.1538  plane waves:    1236
 k-point    54 :   0.4615 0.1538 0.1538  plane waves:    1230
 k-point    55 :   0.2308 0.2308 0.1538  plane waves:    1230
 k-point    56 :   0.3077 0.2308 0.1538  plane waves:    1232
 k-point    57 :   0.3846 0.2308 0.1538  plane waves:    1234
 k-point    58 :   0.4615 0.2308 0.1538  plane waves:    1235
 k-point    59 :   0.3077 0.3077 0.1538  plane waves:    1235
 k-point    60 :   0.3846 0.3077 0.1538  plane waves:    1233
 k-point    61 :   0.4615 0.3077 0.1538  plane waves:    1232
 k-point    62 :   0.3846 0.3846 0.1538  plane waves:    1234
 k-point    63 :   0.4615 0.3846 0.1538  plane waves:    1232
 k-point    64 :   0.4615 0.4615 0.1538  plane waves:    1235
 k-point    65 :   0.2308 0.2308 0.2308  plane waves:    1232
 k-point    66 :   0.3077 0.2308 0.2308  plane waves:    1240
 k-point    67 :   0.3846 0.2308 0.2308  plane waves:    1236
 k-point    68 :   0.4615 0.2308 0.2308  plane waves:    1234
 k-point    69 :   0.3077 0.3077 0.2308  plane waves:    1235
 k-point    70 :   0.3846 0.3077 0.2308  plane waves:    1232
 k-point    71 :   0.4615 0.3077 0.2308  plane waves:    1225
 k-point    72 :   0.3846 0.3846 0.2308  plane waves:    1232
 k-point    73 :   0.4615 0.3846 0.2308  plane waves:    1230
 k-point    74 :   0.4615 0.4615 0.2308  plane waves:    1231
 k-point    75 :   0.3077 0.3077 0.3077  plane waves:    1226
 k-point    76 :   0.3846 0.3077 0.3077  plane waves:    1232
 k-point    77 :   0.4615 0.3077 0.3077  plane waves:    1227
 k-point    78 :   0.3846 0.3846 0.3077  plane waves:    1230
 k-point    79 :   0.4615 0.3846 0.3077  plane waves:    1234
 k-point    80 :   0.4615 0.4615 0.3077  plane waves:    1233
 k-point    81 :   0.3846 0.3846 0.3846  plane waves:    1241
 k-point    82 :   0.4615 0.3846 0.3846  plane waves:    1237
 k-point    83 :   0.4615 0.4615 0.3846  plane waves:    1250
 k-point    84 :   0.4615 0.4615 0.4615  plane waves:    1235

 maximum and minimum number of plane-waves per node :      1253     1224

 maximum number of plane-waves:      1253
 maximum index in each direction: 
   IXMAX=    6   IYMAX=    6   IZMAX=    6
   IXMIN=   -7   IYMIN=   -7   IZMIN=   -7


 serial   3D FFT for wavefunctions
 parallel 3D FFT for charge:
    minimum data exchange during FFTs selected (reduces bandwidth)


 total amount of memory used by VASP MPI-rank0   176387. kBytes
=======================================================================

   base                                    :      30000. kBytes
   nonlr-proj                              :       4144. kBytes
   fftplans                                :      26164. kBytes
   grid                                    :      16231. kBytes
   one-center                              :        124. kBytes
   wavefun                                 :      99724. kBytes
 
     INWAV:  cpu time      0.0000: real time      0.0000
 Broyden mixing: mesh for mixing (old mesh)
   NGX = 13   NGY = 13   NGZ = 13
  (NGX  = 56   NGY  = 56   NGZ  = 56)
  gives a total of   2197 points

 initial charge density was supplied:
 charge density of overlapping atoms calculated
 number of electron      41.0000000 magnetization       7.6000000
 keeping initial charge density in first step


--------------------------------------------------------------------------------------------------------


 Maximum index for non-local projection operator          5887
 Maximum index for augmentation-charges        146533 (set IRDMAX)


--------------------------------------------------------------------------------------------------------


 First call to EWALD:  gamma=   0.495
 Maximum number of real-space cells   3x   3x   3
 Maximum number of reciprocal cells   3x   3x   3

    FEWALD:  cpu time      0.0009: real time      0.0009


--------------------------------------- Ionic step        1  -------------------------------------------




--------------------------------------- Iteration      1(   1)  ---------------------------------------


    POTLOK:  cpu time      0.0177: real time      0.0177
    SETDIJ:  cpu time      0.4823: real time      0.4821
     EDDAV:  cpu time      5.0287: real time      5.0275
       DOS:  cpu time      0.0021: real time      0.0021
    --------------------------------------------
      LOOP:  cpu time      5.5307: real time      5.5294

 eigenvalue-minimisations  : 10064
 total energy-change (2. order) : 0.3303840E+03  (-0.2029364E+04)
 number of electron      41.0000000 magnetization       7.6000000
 augmentation part       41.0000000 magnetization       7.6000000

 Free energy of the ion-electron system (eV)
  ---------------------------------------------------
  alpha Z        PSCENC =       206.17121444
  Ewald energy   TEWEN  =     -3960.07291141
  -Hartree energ DENC   =     -1122.96418772
  -exchange      EXHF   =         0.00000000
  -V(xc)+E(xc)   XCENC  =       122.62423273
  PAW double counting   =      4162.77583374    -4411.66045303
  entropy T*S    EENTRO =         0.00133164
  eigenvalues    EBANDS =       435.99864127
  atomic energy  EATOM  =      4897.51031001
  Solvation  Ediel_sol  =         0.00000000
  ---------------------------------------------------
  free energy    TOTEN  =       330.38401167 eV

  energy without entropy =      330.38268003  energy(sigma->0) =      330.38356779


--------------------------------------------------------------------------------------------------------




--------------------------------------- Iteration      1(   2)  ---------------------------------------


     EDDAV:  cpu time      4.6886: real time      4.6874
       DOS:  cpu time      0.0024: real time      0.0024
    --------------------------------------------
      LOOP:  cpu time      4.6910: real time      4.6899

 eigenvalue-minimisations  :  9456
 total energy-change (2. order) :-0.3411152E+03  (-0.3295861E+03)
 number of electron      41.0000000 magnetization       7.6000000
 augmentation part       41.0000000 magnetization       7.6000000

 Free energy of the ion-electron system (eV)
  ---------------------------------------------------
  alpha Z        PSCENC =       206.17121444
  Ewald energy   TEWEN  =     -3960.07291141
  -Hartree energ DENC   =     -1122.96418772
  -exchange      EXHF   =         0.00000000
  -V(xc)+E(xc)   XCENC  =       122.62423273
  PAW double counting   =      4162.77583374    -4411.66045303
  entropy T*S    EENTRO =        -0.00129899
  eigenvalues    EBANDS =        94.88611445
  atomic energy  EATOM  =      4897.51031001
  Solvation  Ediel_sol  =         0.00000000
  ---------------------------------------------------
  free energy    TOTEN  =       -10.73114579 eV

  energy without entropy =      -10.72984679  energy(sigma->0) =      -10.73071279


--------------------------------------------------------------------------------------------------------




--------------------------------------- Iteration      1(   3)  ---------------------------------------


     EDDAV:  cpu time      4.8971: real time      4.8960
       DOS:  cpu time      0.0026: real time      0.0026
    --------------------------------------------
      LOOP:  cpu time      4.8997: real time      4.8986

 eigenvalue-minimisations  :  9908
 total energy-change (2. order) :-0.2226977E+02  (-0.2054507E+02)
 number of electron      41.0000000 magnetization       7.6000000
 augmentation part       41.0000000 magnetization       7.6000000

 Free energy of the ion-electron system (eV)
  ---------------------------------------------------
  alpha Z        PSCENC =       206.17121444
  Ewald energy   TEWEN  =     -3960.07291141
  -Hartree energ DENC   =     -1122.96418772
  -exchange      EXHF   =         0.00000000
  -V(xc)+E(xc)   XCENC  =       122.62423273
  PAW double counting   =      4162.77583374    -4411.66045303
  entropy T*S    EENTRO =        -0.00338960
  eigenvalues    EBANDS =        72.61843404
  atomic energy  EATOM  =      4897.51031001
  Solvation  Ediel_sol  =         0.00000000
  ---------------------------------------------------
  free energy    TOTEN  =       -33.00091680 eV

  energy without entropy =      -32.99752719  energy(sigma->0) =      -32.99978693


--------------------------------------------------------------------------------------------------------




--------------------------------------- Iteration      1(   4)  ---------------------------------------


     EDDAV:  cpu time      5.1006: real time      5.0995
       DOS:  cpu time      0.0027: real time      0.0027
    --------------------------------------------
      LOOP:  cpu time      5.1032: real time      5.1022

 eigenvalue-minimisations  : 10372
 total energy-change (2. order) :-0.5417449E+00  (-0.5364675E+00)
 number of electron      41.0000000 magnetization       7.6000000
 augmentation part       41.0000000 magnetization       7.6000000

 Free energy of the ion-electron system (eV)
  ---------------------------------------------------
  alpha Z        PSCENC =       206.17121444
  Ewald energy   TEWEN  =     -3960.07291141
  -Hartree energ DENC   =     -1122.96418772
  -exchange      EXHF   =         0.00000000
  -V(xc)+E(xc)   XCENC  =       122.62423273
  PAW double counting   =      4162.77583374    -4411.66045303
  entropy T*S    EENTRO =        -0.00340286
  eigenvalues    EBANDS =        72.07670240
  atomic energy  EATOM  =      4897.51031001
  Solvation  Ediel_sol  =         0.00000000
  ---------------------------------------------------
  free energy    TOTEN  =       -33.54266170 eV

  energy without entropy =      -33.53925884  energy(sigma->0) =      -33.54152741


--------------------------------------------------------------------------------------------------------




--------------------------------------- Iteration      1(   5)  ---------------------------------------


     EDDAV:  cpu time      6.2777: real time      6.2763
       DOS:  cpu time      0.0027: real time      0.0027
    CHARGE:  cpu time      0.4569: real time      0.4568
    MIXING:  cpu time      0.0038: real time      0.0038
    --------------------------------------------
      LOOP:  cpu time      6.7410: real time      6.7395

 eigenvalue-minimisations  : 13424
 total energy-change (2. order) :-0.2175403E-01  (-0.2175028E-01)
 number of electron      41.0000000 magnetization       5.8916771
 augmentation part       21.5589279 magnetization       4.4394280

 Broyden mixing:
  rms(total) = 0.20631E+01    rms(broyden)= 0.20630E+01
  rms(prec ) = 0.42032E+01
  weight for this iteration     100.00

 Free energy of the ion-electron system (eV)
  ---------------------------------------------------
  alpha Z        PSCENC =       206.17121444
  Ewald energy   TEWEN  =     -3960.07291141
  -Hartree energ DENC   =     -1122.96418772
  -exchange      EXHF   =         0.00000000
  -V(xc)+E(xc)   XCENC  =       122.62423273
  PAW double counting   =      4162.77583374    -4411.66045303
  entropy T*S    EENTRO =        -0.00338960
  eigenvalues    EBANDS =        72.05493511
  atomic energy  EATOM  =      4897.51031001
  Solvation  Ediel_sol  =         0.00000000
  ---------------------------------------------------
  free energy    TOTEN  =       -33.56441573 eV

  energy without entropy =      -33.56102613  energy(sigma->0) =      -33.56328586


--------------------------------------------------------------------------------------------------------




--------------------------------------- Iteration      1(   6)  ---------------------------------------


    POTLOK:  cpu time      0.0073: real time      0.0073
    SETDIJ:  cpu time      0.4695: real time      0.4694
     EDDAV:  cpu time      4.7944: real time      4.7933
       DOS:  cpu time      0.0026: real time      0.0026
    CHARGE:  cpu time      0.4341: real time      0.4340
    MIXING:  cpu time      0.0038: real time      0.0039
    --------------------------------------------
      LOOP:  cpu time      5.7118: real time      5.7105

 eigenvalue-minimisations  :  9680
 total energy-change (2. order) : 0.3281710E+01  (-0.4404527E+01)
 number of electron      41.0000000 magnetization       6.8160284
 augmentation part       24.7826175 magnetization       5.7127352

 Broyden mixing:
  rms(total) = 0.15798E+01    rms(broyden)= 0.15797E+01
  rms(prec ) = 0.27853E+01
  weight for this iteration     100.00

 eigenvalues of (default mixing * dielectric matrix)
  average eigenvalue GAMMA=   0.4561
  0.4561

 Free energy of the ion-electron system (eV)
  ---------------------------------------------------
  alpha Z        PSCENC =       206.17121444
  Ewald energy   TEWEN  =     -3960.07291141
  -Hartree energ DENC   =     -1018.65638620
  -exchange      EXHF   =         0.00000000
  -V(xc)+E(xc)   XCENC  =       117.57087083
  PAW double counting   =      4348.19513857    -4577.45091119
  entropy T*S    EENTRO =         0.00112842
  eigenvalues    EBANDS =       -43.55115895
  atomic energy  EATOM  =      4897.51031001
  Solvation  Ediel_sol  =         0.00000000
  ---------------------------------------------------
  free energy    TOTEN  =       -30.28270548 eV

  energy without entropy =      -30.28383390  energy(sigma->0) =      -30.28308162


--------------------------------------------------------------------------------------------------------




--------------------------------------- Iteration      1(   7)  ---------------------------------------


    POTLOK:  cpu time      0.0073: real time      0.0073
    SETDIJ:  cpu time      0.4684: real time      0.4682
     EDDAV:  cpu time      5.1001: real time      5.0990
       DOS:  cpu time      0.0026: real time      0.0026
    CHARGE:  cpu time      0.4302: real time      0.4301
    MIXING:  cpu time      0.0039: real time      0.0039
    --------------------------------------------
      LOOP:  cpu time      6.0125: real time      6.0112

 eigenvalue-minimisations  : 10504
 total energy-change (2. order) :-0.1887501E+01  (-0.1155923E+01)
 number of electron      41.0000000 magnetization       6.3403159
 augmentation part       24.3237177 magnetization       5.8700772

 Broyden mixing:
  rms(total) = 0.29595E+01    rms(broyden)= 0.29594E+01
  rms(prec ) = 0.77232E+01
  weight for this iteration     100.00

 eigenvalues of (default mixing * dielectric matrix)
  average eigenvalue GAMMA=   0.5202
  0.7978  0.2426

 Free energy of the ion-electron system (eV)
  ---------------------------------------------------
  alpha Z        PSCENC =       206.17121444
  Ewald energy   TEWEN  =     -3960.07291141
  -Hartree energ DENC   =     -1052.57427881
  -exchange      EXHF   =         0.00000000
  -V(xc)+E(xc)   XCENC  =       119.66424164
  PAW double counting   =      4528.19598651    -4767.80656210
  entropy T*S    EENTRO =         0.00018612
  eigenvalues    EBANDS =        -3.25839240
  atomic energy  EATOM  =      4897.51031001
  Solvation  Ediel_sol  =         0.00000000
  ---------------------------------------------------
  free energy    TOTEN  =       -32.17020600 eV

  energy without entropy =      -32.17039212  energy(sigma->0) =      -32.17026804


--------------------------------------------------------------------------------------------------------




--------------------------------------- Iteration      1(   8)  ---------------------------------------


    POTLOK:  cpu time      0.0073: real time      0.0073
    SETDIJ:  cpu time      0.4688: real time      0.4687
     EDDAV:  cpu time      5.4667: real time      5.4654
       DOS:  cpu time      0.0026: real time      0.0026
    CHARGE:  cpu time      0.4361: real time      0.4361
    MIXING:  cpu time      0.0039: real time      0.0039
    --------------------------------------------
      LOOP:  cpu time      6.3855: real time      6.3840

 eigenvalue-minimisations  : 11336
 total energy-change (2. order) : 0.2785612E+01  (-0.1752539E+01)
 number of electron      41.0000000 magnetization       6.7035827
 augmentation part       23.6739303 magnetization       5.5980574

 Broyden mixing:
  rms(total) = 0.75174E+00    rms(broyden)= 0.75133E+00
  rms(prec ) = 0.16637E+01
  weight for this iteration     100.00

 eigenvalues of (default mixing * dielectric matrix)
  average eigenvalue GAMMA=   0.5259
  0.9810  0.4809  0.1159

 Free energy of the ion-electron system (eV)
  ---------------------------------------------------
  alpha Z        PSCENC =       206.17121444
  Ewald energy   TEWEN  =     -3960.07291141
  -Hartree energ DENC   =     -1044.81975649
  -exchange      EXHF   =         0.00000000
  -V(xc)+E(xc)   XCENC  =       119.23418300
  PAW double counting   =      4553.21967374    -4797.30202889
  entropy T*S    EENTRO =         0.00064306
  eigenvalues    EBANDS =        -3.32592151
  atomic energy  EATOM  =      4897.51031001
  Solvation  Ediel_sol  =         0.00000000
  ---------------------------------------------------
  free energy    TOTEN  =       -29.38459405 eV

  energy without entropy =      -29.38523711  energy(sigma->0) =      -29.38480840


--------------------------------------------------------------------------------------------------------




--------------------------------------- Iteration      1(   9)  ---------------------------------------


    POTLOK:  cpu time      0.0073: real time      0.0073
    SETDIJ:  cpu time      0.4671: real time      0.4670
     EDDAV:  cpu time      5.3191: real time      5.3178
       DOS:  cpu time      0.0027: real time      0.0027
    CHARGE:  cpu time      0.4370: real time      0.4369
    MIXING:  cpu time      0.0039: real time      0.0039
    --------------------------------------------
      LOOP:  cpu time      6.2372: real time      6.2356

 eigenvalue-minimisations  : 10964
 total energy-change (2. order) : 0.1010363E+00  (-0.3911574E-01)
 number of electron      41.0000000 magnetization       7.1901419
 augmentation part       23.6965205 magnetization       6.0979222

 Broyden mixing:
  rms(total) = 0.42129E+00    rms(broyden)= 0.42127E+00
  rms(prec ) = 0.78775E+00
  weight for this iteration     100.00

 eigenvalues of (default mixing * dielectric matrix)
  average eigenvalue GAMMA=   0.6409
  1.2801  0.1258  0.5790  0.5790

 Free energy of the ion-electron system (eV)
  ---------------------------------------------------
  alpha Z        PSCENC =       206.17121444
  Ewald energy   TEWEN  =     -3960.07291141
  -Hartree energ DENC   =     -1042.18512972
  -exchange      EXHF   =         0.00000000
  -V(xc)+E(xc)   XCENC  =       119.32162758
  PAW double counting   =      4650.13233011    -4897.04121728
  entropy T*S    EENTRO =         0.00092206
  eigenvalues    EBANDS =        -3.12070351
  atomic energy  EATOM  =      4897.51031001
  Solvation  Ediel_sol  =         0.00000000
  ---------------------------------------------------
  free energy    TOTEN  =       -29.28355773 eV

  energy without entropy =      -29.28447979  energy(sigma->0) =      -29.28386509


--------------------------------------------------------------------------------------------------------




--------------------------------------- Iteration      1(  10)  ---------------------------------------


    POTLOK:  cpu time      0.0073: real time      0.0073
    SETDIJ:  cpu time      0.4716: real time      0.4715
     EDDAV:  cpu time      6.1943: real time      6.1928
       DOS:  cpu time      0.0026: real time      0.0026
    CHARGE:  cpu time      0.4376: real time      0.4375
    MIXING:  cpu time      0.0039: real time      0.0039
    --------------------------------------------
      LOOP:  cpu time      7.1173: real time      7.1157

 eigenvalue-minimisations  : 12844
 total energy-change (2. order) :-0.7451025E-02  (-0.1023315E-01)
 number of electron      41.0000000 magnetization       7.5695964
 augmentation part       23.7792419 magnetization       6.4897613

 Broyden mixing:
  rms(total) = 0.20603E+00    rms(broyden)= 0.20603E+00
  rms(prec ) = 0.29744E+00
  weight for this iteration     100.00

 eigenvalues of (default mixing * dielectric matrix)
  average eigenvalue GAMMA=   0.8761
  1.9282  0.1248  0.9104  0.7545  0.6628

 Free energy of the ion-electron system (eV)
  ---------------------------------------------------
  alpha Z        PSCENC =       206.17121444
  Ewald energy   TEWEN  =     -3960.07291141
  -Hartree energ DENC   =     -1037.59882834
  -exchange      EXHF   =         0.00000000
  -V(xc)+E(xc)   XCENC  =       119.43514554
  PAW double counting   =      4739.06194772    -4988.25021332
  entropy T*S    EENTRO =        -0.00019941
  eigenvalues    EBANDS =        -5.54747398
  atomic energy  EATOM  =      4897.51031001
  Solvation  Ediel_sol  =         0.00000000
  ---------------------------------------------------
  free energy    TOTEN  =       -29.29100876 eV

  energy without entropy =      -29.29080935  energy(sigma->0) =      -29.29094229


--------------------------------------------------------------------------------------------------------




--------------------------------------- Iteration      1(  11)  ---------------------------------------


    POTLOK:  cpu time      0.0073: real time      0.0073
    SETDIJ:  cpu time      0.4658: real time      0.4657
     EDDAV:  cpu time      5.9297: real time      5.9283
       DOS:  cpu time      0.0025: real time      0.0025
    CHARGE:  cpu time      0.4369: real time      0.4369
    MIXING:  cpu time      0.0040: real time      0.0040
    --------------------------------------------
      LOOP:  cpu time      6.8464: real time      6.8447

 eigenvalue-minimisations  : 12348
 total energy-change (2. order) :-0.1243343E-01  (-0.4060956E-02)
 number of electron      41.0000000 magnetization       7.6138356
 augmentation part       23.8288938 magnetization       6.5216810

 Broyden mixing:
  rms(total) = 0.92588E-01    rms(broyden)= 0.92570E-01
  rms(prec ) = 0.16642E+00
  weight for this iteration     100.00

 eigenvalues of (default mixing * dielectric matrix)
  average eigenvalue GAMMA=   0.9687
  2.6154  0.1248  0.8975  0.8975  0.6384  0.6384

 Free energy of the ion-electron system (eV)
  ---------------------------------------------------
  alpha Z        PSCENC =       206.17121444
  Ewald energy   TEWEN  =     -3960.07291141
  -Hartree energ DENC   =     -1034.34287906
  -exchange      EXHF   =         0.00000000
  -V(xc)+E(xc)   XCENC  =       119.54540689
  PAW double counting   =      4810.56217802    -5061.68872552
  entropy T*S    EENTRO =         0.00027459
  eigenvalues    EBANDS =        -6.98831015
  atomic energy  EATOM  =      4897.51031001
  Solvation  Ediel_sol  =         0.00000000
  ---------------------------------------------------
  free energy    TOTEN  =       -29.30344219 eV

  energy without entropy =      -29.30371678  energy(sigma->0) =      -29.30353372


--------------------------------------------------------------------------------------------------------




--------------------------------------- Iteration      1(  12)  ---------------------------------------


    POTLOK:  cpu time      0.0073: real time      0.0073
    SETDIJ:  cpu time      0.4676: real time      0.4675
     EDDAV:  cpu time      5.5359: real time      5.5346
       DOS:  cpu time      0.0026: real time      0.0026
    CHARGE:  cpu time      0.4355: real time      0.4354
    MIXING:  cpu time      0.0042: real time      0.0042
    --------------------------------------------
      LOOP:  cpu time      6.4531: real time      6.4516

 eigenvalue-minimisations  : 11516
 total energy-change (2. order) : 0.5740787E-03  (-0.6091026E-03)
 number of electron      41.0000000 magnetization       7.5289298
 augmentation part       23.8332909 magnetization       6.4339784

 Broyden mixing:
  rms(total) = 0.60907E-01    rms(broyden)= 0.60905E-01
  rms(prec ) = 0.12095E+00
  weight for this iteration     100.00

 eigenvalues of (default mixing * dielectric matrix)
  average eigenvalue GAMMA=   0.9985
  2.2180  1.3784  1.3784  0.1248  0.6354  0.6354  0.6190

 Free energy of the ion-electron system (eV)
  ---------------------------------------------------
  alpha Z        PSCENC =       206.17121444
  Ewald energy   TEWEN  =     -3960.07291141
  -Hartree energ DENC   =     -1033.67907933
  -exchange      EXHF   =         0.00000000
  -V(xc)+E(xc)   XCENC  =       119.53944045
  PAW double counting   =      4824.45428796    -5075.93125591
  entropy T*S    EENTRO =         0.00039900
  eigenvalues    EBANDS =        -7.29527332
  atomic energy  EATOM  =      4897.51031001
  Solvation  Ediel_sol  =         0.00000000
  ---------------------------------------------------
  free energy    TOTEN  =       -29.30286811 eV

  energy without entropy =      -29.30326711  energy(sigma->0) =      -29.30300111


--------------------------------------------------------------------------------------------------------




--------------------------------------- Iteration      1(  13)  ---------------------------------------


    POTLOK:  cpu time      0.0075: real time      0.0075
    SETDIJ:  cpu time      0.4668: real time      0.4667
     EDDAV:  cpu time      6.3419: real time      6.3404
       DOS:  cpu time      0.0026: real time      0.0026
    CHARGE:  cpu time      0.4347: real time      0.4346
    MIXING:  cpu time      0.0042: real time      0.0042
    --------------------------------------------
      LOOP:  cpu time      7.2576: real time      7.2559

 eigenvalue-minimisations  : 13544
 total energy-change (2. order) : 0.3604777E-03  (-0.3140715E-03)
 number of electron      41.0000000 magnetization       7.5162184
 augmentation part       23.8229917 magnetization       6.4233932

 Broyden mixing:
  rms(total) = 0.18964E-01    rms(broyden)= 0.18960E-01
  rms(prec ) = 0.26401E-01
  weight for this iteration     100.00

 eigenvalues of (default mixing * dielectric matrix)
  average eigenvalue GAMMA=   1.0274
  2.3800  1.5189  1.5189  0.1248  0.7000  0.7000  0.6383  0.6383

 Free energy of the ion-electron system (eV)
  ---------------------------------------------------
  alpha Z        PSCENC =       206.17121444
  Ewald energy   TEWEN  =     -3960.07291141
  -Hartree energ DENC   =     -1033.79321013
  -exchange      EXHF   =         0.00000000
  -V(xc)+E(xc)   XCENC  =       119.48735368
  PAW double counting   =      4820.94470230    -5072.29482613
  entropy T*S    EENTRO =         0.00026738
  eigenvalues    EBANDS =        -7.25540778
  atomic energy  EATOM  =      4897.51031001
  Solvation  Ediel_sol  =         0.00000000
  ---------------------------------------------------
  free energy    TOTEN  =       -29.30250763 eV

  energy without entropy =      -29.30277502  energy(sigma->0) =      -29.30259676


--------------------------------------------------------------------------------------------------------




--------------------------------------- Iteration      1(  14)  ---------------------------------------


    POTLOK:  cpu time      0.0073: real time      0.0073
    SETDIJ:  cpu time      0.4701: real time      0.4699
     EDDAV:  cpu time      4.9338: real time      4.9326
       DOS:  cpu time      0.0025: real time      0.0025
    CHARGE:  cpu time      0.4347: real time      0.4345
    MIXING:  cpu time      0.0042: real time      0.0042
    --------------------------------------------
      LOOP:  cpu time      5.8525: real time      5.8511

 eigenvalue-minimisations  :  9980
 total energy-change (2. order) : 0.2534503E-05  (-0.3567581E-04)
 number of electron      41.0000000 magnetization       7.5195832
 augmentation part       23.8274043 magnetization       6.4284956

 Broyden mixing:
  rms(total) = 0.70439E-02    rms(broyden)= 0.70415E-02
  rms(prec ) = 0.15781E-01
  weight for this iteration     100.00

 eigenvalues of (default mixing * dielectric matrix)
  average eigenvalue GAMMA=   1.0395
  2.5611  1.5202  1.5202  0.1248  0.9553  0.6857  0.6857  0.6512  0.6512

 Free energy of the ion-electron system (eV)
  ---------------------------------------------------
  alpha Z        PSCENC =       206.17121444
  Ewald energy   TEWEN  =     -3960.07291141
  -Hartree energ DENC   =     -1033.54976247
  -exchange      EXHF   =         0.00000000
  -V(xc)+E(xc)   XCENC  =       119.47490410
  PAW double counting   =      4825.68484512    -5077.12983807
  entropy T*S    EENTRO =         0.00022268
  eigenvalues    EBANDS =        -7.39148949
  atomic energy  EATOM  =      4897.51031001
  Solvation  Ediel_sol  =         0.00000000
  ---------------------------------------------------
  free energy    TOTEN  =       -29.30250510 eV

  energy without entropy =      -29.30272778  energy(sigma->0) =      -29.30257933


--------------------------------------------------------------------------------------------------------




--------------------------------------- Iteration      1(  15)  ---------------------------------------


    POTLOK:  cpu time      0.0073: real time      0.0073
    SETDIJ:  cpu time      0.4693: real time      0.4692
     EDDAV:  cpu time      5.8538: real time      5.8525
       DOS:  cpu time      0.0025: real time      0.0025
    CHARGE:  cpu time      0.4408: real time      0.4407
    MIXING:  cpu time      0.0042: real time      0.0042
    --------------------------------------------
      LOOP:  cpu time      6.7780: real time      6.7765

 eigenvalue-minimisations  : 12324
 total energy-change (2. order) :-0.6748192E-05  (-0.3764561E-05)
 number of electron      41.0000000 magnetization       7.5236243
 augmentation part       23.8284391 magnetization       6.4316892

 Broyden mixing:
  rms(total) = 0.28154E-02    rms(broyden)= 0.28152E-02
  rms(prec ) = 0.36640E-02
  weight for this iteration     100.00

 eigenvalues of (default mixing * dielectric matrix)
  average eigenvalue GAMMA=   1.0552
  2.7012  1.7818  1.2906  1.2906  0.1248  0.7389  0.7389  0.6374  0.6374  0.6102

 Free energy of the ion-electron system (eV)
  ---------------------------------------------------
  alpha Z        PSCENC =       206.17121444
  Ewald energy   TEWEN  =     -3960.07291141
  -Hartree energ DENC   =     -1033.53167551
  -exchange      EXHF   =         0.00000000
  -V(xc)+E(xc)   XCENC  =       119.47499637
  PAW double counting   =      4826.74980526    -5078.21599704
  entropy T*S    EENTRO =         0.00020855
  eigenvalues    EBANDS =        -7.38846252
  atomic energy  EATOM  =      4897.51031001
  Solvation  Ediel_sol  =         0.00000000
  ---------------------------------------------------
  free energy    TOTEN  =       -29.30251185 eV

  energy without entropy =      -29.30272040  energy(sigma->0) =      -29.30258136


--------------------------------------------------------------------------------------------------------




--------------------------------------- Iteration      1(  16)  ---------------------------------------


    POTLOK:  cpu time      0.0074: real time      0.0074
    SETDIJ:  cpu time      0.4693: real time      0.4691
     EDDAV:  cpu time      5.2866: real time      5.2854
       DOS:  cpu time      0.0025: real time      0.0025
    CHARGE:  cpu time      0.4352: real time      0.4351
    MIXING:  cpu time      0.0043: real time      0.0043
    --------------------------------------------
      LOOP:  cpu time      6.2054: real time      6.2039

 eigenvalue-minimisations  : 10860
 total energy-change (2. order) :-0.2731733E-05  (-0.8115552E-06)
 number of electron      41.0000000 magnetization       7.5237317
 augmentation part       23.8283549 magnetization       6.4315671

 Broyden mixing:
  rms(total) = 0.98242E-03    rms(broyden)= 0.98202E-03
  rms(prec ) = 0.12096E-02
  weight for this iteration     100.00

 eigenvalues of (default mixing * dielectric matrix)
  average eigenvalue GAMMA=   1.0788
  2.7137  1.9531  0.1248  1.2462  1.2462  0.9996  0.9996  0.6583  0.6583  0.6335
  0.6335

 Free energy of the ion-electron system (eV)
  ---------------------------------------------------
  alpha Z        PSCENC =       206.17121444
  Ewald energy   TEWEN  =     -3960.07291141
  -Hartree energ DENC   =     -1033.54024243
  -exchange      EXHF   =         0.00000000
  -V(xc)+E(xc)   XCENC  =       119.47820594
  PAW double counting   =      4826.75587287    -5078.21963050
  entropy T*S    EENTRO =         0.00021695
  eigenvalues    EBANDS =        -7.38555045
  atomic energy  EATOM  =      4897.51031001
  Solvation  Ediel_sol  =         0.00000000
  ---------------------------------------------------
  free energy    TOTEN  =       -29.30251458 eV

  energy without entropy =      -29.30273153  energy(sigma->0) =      -29.30258690


--------------------------------------------------------------------------------------------------------




--------------------------------------- Iteration      1(  17)  ---------------------------------------


    POTLOK:  cpu time      0.0073: real time      0.0073
    SETDIJ:  cpu time      0.4666: real time      0.4664
     EDDAV:  cpu time      3.7899: real time      3.7891
       DOS:  cpu time      0.0025: real time      0.0025
    CHARGE:  cpu time      0.4379: real time      0.4378
    MIXING:  cpu time      0.0045: real time      0.0045
    --------------------------------------------
      LOOP:  cpu time      4.7087: real time      4.7076

 eigenvalue-minimisations  :  6848
 total energy-change (2. order) : 0.1317771E-05  (-0.2465483E-06)
 number of electron      41.0000000 magnetization       7.5245105
 augmentation part       23.8281328 magnetization       6.4326350

 Broyden mixing:
  rms(total) = 0.90698E-03    rms(broyden)= 0.90687E-03
  rms(prec ) = 0.24483E-02
  weight for this iteration     100.00

 eigenvalues of (default mixing * dielectric matrix)
  average eigenvalue GAMMA=   1.1029
  2.6093  2.2779  1.2993  1.2993  1.3862  0.1248  0.8006  0.7611  0.7611  0.6480
  0.6480  0.6184

 Free energy of the ion-electron system (eV)
  ---------------------------------------------------
  alpha Z        PSCENC =       206.17121444
  Ewald energy   TEWEN  =     -3960.07291141
  -Hartree energ DENC   =     -1033.55776202
  -exchange      EXHF   =         0.00000000
  -V(xc)+E(xc)   XCENC  =       119.47959159
  PAW double counting   =      4826.29000269    -5077.73768098
  entropy T*S    EENTRO =         0.00022556
  eigenvalues    EBANDS =        -7.38550315
  atomic energy  EATOM  =      4897.51031001
  Solvation  Ediel_sol  =         0.00000000
  ---------------------------------------------------
  free energy    TOTEN  =       -29.30251326 eV

  energy without entropy =      -29.30273882  energy(sigma->0) =      -29.30258845


--------------------------------------------------------------------------------------------------------




--------------------------------------- Iteration      1(  18)  ---------------------------------------


    POTLOK:  cpu time      0.0073: real time      0.0073
    SETDIJ:  cpu time      0.4692: real time      0.4690
     EDDAV:  cpu time      3.2258: real time      3.2250
       DOS:  cpu time      0.0024: real time      0.0024
    --------------------------------------------
      LOOP:  cpu time      3.7046: real time      3.7037

 eigenvalue-minimisations  :  5308
 total energy-change (2. order) : 0.6278974E-06  (-0.4735648E-07)
 number of electron      41.0000000 magnetization       7.5245105
 augmentation part       23.8281328 magnetization       6.4326350

 Free energy of the ion-electron system (eV)
  ---------------------------------------------------
  alpha Z        PSCENC =       206.17121444
  Ewald energy   TEWEN  =     -3960.07291141
  -Hartree energ DENC   =     -1033.56589956
  -exchange      EXHF   =         0.00000000
  -V(xc)+E(xc)   XCENC  =       119.48025244
  PAW double counting   =      4826.18484018    -5077.62950413
  entropy T*S    EENTRO =         0.00022518
  eigenvalues    EBANDS =        -7.38103979
  atomic energy  EATOM  =      4897.51031001
  Solvation  Ediel_sol  =         0.00000000
  ---------------------------------------------------
  free energy    TOTEN  =       -29.30251263 eV

  energy without entropy =      -29.30273781  energy(sigma->0) =      -29.30258769


--------------------------------------------------------------------------------------------------------




 average (electrostatic) potential at core
  the test charge radii are     0.9500  1.0452
  (the norm of the test charge is              1.0000)
       1 -73.9034       2 -78.9093       3 -78.9093       4 -78.9093
 
 
 
 E-fermi :   9.6043     XC(G=0): -13.2107     alpha+bet :-16.9239

 val. band max:        9.6028959278   @ k =   0.4615   0.4615   0.3077
 cond. band min:       9.6049359536   @ k =   0.3846   0.2308   0.2308
 fundamental gap:      0.0020400257
 Fermi energy:         9.6043123528

 spin component 1

 k-point     1 :       0.0000    0.0000    0.0000
  band No.  band energies     occupation 
      1     -44.8936      1.00000
      2     -44.8936      1.00000
      3     -44.8936      1.00000
      4       0.9706      1.00000
      5       4.5219      1.00000
      6       4.5219      1.00000
      7       4.6517      1.00000
      8       5.2276      1.00000
      9       5.2276      1.00000
     10       5.2276      1.00000
     11       7.0733      1.00000
     12       7.0733      1.00000
     13       7.0733      1.00000
     14       7.9824      1.00000
     15       7.9824      1.00000
     16       8.6928      1.00000
     17       8.7527      1.00000
     18       8.7527      1.00000
     19       9.0812      1.00000
     20       9.0812      1.00000
     21       9.0812      1.00000
     22       9.2670      1.00001
     23       9.2670      1.00001
     24       9.2670      1.00001
     25      12.1048      0.00000
     26      12.1048      0.00000
     27      12.1048      0.00000
     28      18.7898      0.00000

 k-point     2 :       0.0769    0.0000    0.0000
  band No.  band energies     occupation 
      1     -44.8939      1.00000
      2     -44.8936      1.00000
      3     -44.8936      1.00000
      4       1.0464      1.00000
      5       4.5459      1.00000
      6       4.5617      1.00000
      7       4.6836      1.00000
      8       5.2520      1.00000
      9       5.2560      1.00000
     10       5.2560      1.00000
     11       7.0438      1.00000
     12       7.0963      1.00000
     13       7.0963      1.00000
     14       7.9555      1.00000
     15       7.9928      1.00000
     16       8.6647      1.00000
     17       8.7179      1.00000
     18       8.7345      1.00000
     19       8.9487      1.00000
     20       8.9487      1.00000
     21       9.0813      1.00000
     22       9.1732      1.00000
     23       9.1732      1.00000
     24       9.2671      1.00001
     25      11.7006      0.00000
     26      12.3501      0.00000
     27      12.3501      0.00000
     28      18.8092      0.00000

 k-point     3 :       0.1538    0.0000    0.0000
  band No.  band energies     occupation 
      1     -44.8945      1.00000
      2     -44.8937      1.00000
      3     -44.8937      1.00000
      4       1.2718      1.00000
      5       4.5990      1.00000
      6       4.6765      1.00000
      7       4.7850      1.00000
      8       5.3242      1.00000
      9       5.3412      1.00000
     10       5.3412      1.00000
     11       6.9574      1.00000
     12       7.1646      1.00000
     13       7.1646      1.00000
     14       7.8779      1.00000
     15       8.0233      1.00000
     16       8.5488      1.00000
     17       8.5488      1.00000
     18       8.5708      1.00000
     19       8.6163      1.00000
     20       8.6935      1.00000
     21       9.0239      1.00000
     22       9.0239      1.00000
     23       9.0815      1.00000
     24       9.2672      1.00001
     25      10.7597     -0.00000
     26      12.9615      0.00000
     27      12.9615      0.00000
     28      18.8569      0.00000

 k-point     4 :       0.2308    0.0000    0.0000
  band No.  band energies     occupation 
      1     -44.8954      1.00000
      2     -44.8937      1.00000
      3     -44.8937      1.00000
      4       1.6394      1.00000
      5       4.6393      1.00000
      6       4.8516      1.00000
      7       4.9542      1.00000
      8       5.4409      1.00000
      9       5.4837      1.00000
     10       5.4837      1.00000
     11       6.8206      1.00000
     12       7.2767      1.00000
     13       7.2767      1.00000
     14       7.7590      1.00000
     15       8.0472      1.00000
     16       8.0472      1.00000
     17       8.0723      1.00000
     18       8.4160      1.00000
     19       8.4582      1.00000
     20       8.6379      1.00000
     21       8.8330      1.00000
     22       8.8330      1.00000
     23       9.0817      1.00000
     24       9.2675      1.00001
     25       9.6702      0.05529
     26      13.7727      0.00000
     27      13.7727      0.00000
     28      18.9772      0.00000

 k-point     5 :       0.3077    0.0000    0.0000
  band No.  band energies     occupation 
      1     -44.8964      1.00000
      2     -44.8938      1.00000
      3     -44.8938      1.00000
      4       2.1349      1.00000
      5       4.6069      1.00000
      6       5.0597      1.00000
      7       5.1635      1.00000
      8       5.5970      1.00000
      9       5.6838      1.00000
     10       5.6838      1.00000
     11       6.6434      1.00000
     12       7.4247      1.00000
     13       7.4247      1.00000
     14       7.5471      1.00000
     15       7.5471      1.00000
     16       7.6173      1.00000
     17       8.1354      1.00000
     18       8.2278      1.00000
     19       8.2650      1.00000
     20       8.5684      1.00000
     21       8.6027      1.00000
     22       8.6027      1.00000
     23       8.6705      1.00000
     24       9.0820      1.00000
     25       9.2677      1.00001
     26      14.7014      0.00000
     27      14.7014      0.00000
     28      19.0892      0.00000

 k-point     6 :       0.3846    0.0000    0.0000
  band No.  band energies     occupation 
      1     -44.8972      1.00000
      2     -44.8938      1.00000
      3     -44.8938      1.00000
      4       2.7314      1.00000
      5       4.4095      1.00000
      6       5.2565      1.00000
      7       5.3651      1.00000
      8       5.7848      1.00000
      9       5.9415      1.00000
     10       5.9415      1.00000
     11       6.4380      1.00000
     12       7.0646      1.00000
     13       7.0646      1.00000
     14       7.4851      1.00000
     15       7.6251      1.00000
     16       7.6251      1.00000
     17       7.9162      1.00000
     18       8.0405      1.00000
     19       8.0866      1.00000
     20       8.2157      1.00000
     21       8.3504      1.00000
     22       8.3504      1.00000
     23       8.4887      1.00000
     24       9.0822      1.00000
     25       9.2680      1.00001
     26      15.7118      0.00000
     27      15.7118      0.00000
     28      19.0787      0.00000

 k-point     7 :       0.4615    0.0000    0.0000
  band No.  band energies     occupation 
      1     -44.8977      1.00000
      2     -44.8938      1.00000
      3     -44.8938      1.00000
      4       3.3778      1.00000
      5       3.9800      1.00000
      6       5.3814      1.00000
      7       5.4943      1.00000
      8       5.9945      1.00000
      9       6.2184      1.00000
     10       6.2529      1.00000
     11       6.2529      1.00000
     12       6.6430      1.00000
     13       6.6430      1.00000
     14       7.4196      1.00000
     15       7.5215      1.00000
     16       7.8468      1.00000
     17       7.8468      1.00000
     18       7.9234      1.00000
     19       7.9633      1.00000
     20       8.0943      1.00000
     21       8.0943      1.00000
     22       8.2940      1.00000
     23       8.4081      1.00000
     24       9.0823      1.00000
     25       9.2681      1.00001
     26      16.7858      0.00000
     27      16.7858      0.00000
     28      17.9116      0.00000

 k-point     8 :       0.0769    0.0769    0.0000
  band No.  band energies     occupation 
      1     -44.8939      1.00000
      2     -44.8938      1.00000
      3     -44.8936      1.00000
      4       1.1219      1.00000
      5       4.5800      1.00000
      6       4.5926      1.00000
      7       4.7145      1.00000
      8       5.2779      1.00000
      9       5.2820      1.00000
     10       5.2837      1.00000
     11       7.0272      1.00000
     12       7.1068      1.00000
     13       7.1168      1.00000
     14       7.9478      1.00000
     15       7.9864      1.00000
     16       8.6348      1.00000
     17       8.6872      1.00000
     18       8.6991      1.00000
     19       8.8314      1.00000
     20       8.8707      1.00000
     21       9.0265      1.00000
     22       9.0481      1.00000
     23       9.1559      1.00000
     24       9.2309      1.00000
     25      11.9354      0.00000
     26      11.9567      0.00000
     27      12.5732      0.00000
     28      18.8468      0.00000

 k-point     9 :       0.1538    0.0769    0.0000
  band No.  band energies     occupation 
      1     -44.8945      1.00000
      2     -44.8939      1.00000
      3     -44.8937      1.00000
      4       1.3459      1.00000
      5       4.6398      1.00000
      6       4.7040      1.00000
      7       4.8136      1.00000
      8       5.3497      1.00000
      9       5.3651      1.00000
     10       5.3667      1.00000
     11       6.9491      1.00000
     12       7.1685      1.00000
     13       7.1775      1.00000
     14       7.8804      1.00000
     15       8.0147      1.00000
     16       8.4410      1.00000
     17       8.4686      1.00000
     18       8.5583      1.00000
     19       8.6216      1.00000
     20       8.6372      1.00000
     21       8.8445      1.00000
     22       9.0012      1.00000
     23       9.0667      1.00000
     24       9.2185      1.00000
     25      11.0227     -0.00000
     26      12.5413      0.00000
     27      13.1469      0.00000
     28      18.8864      0.00000

 k-point    10 :       0.2308    0.0769    0.0000
  band No.  band energies     occupation 
      1     -44.8954      1.00000
      2     -44.8939      1.00000
      3     -44.8937      1.00000
      4       1.7114      1.00000
      5       4.6841      1.00000
      6       4.8793      1.00000
      7       4.9813      1.00000
      8       5.4647      1.00000
      9       5.5049      1.00000
     10       5.5052      1.00000
     11       6.8170      1.00000
     12       7.2728      1.00000
     13       7.2787      1.00000
     14       7.7717      1.00000
     15       7.9667      1.00000
     16       7.9990      1.00000
     17       8.0706      1.00000
     18       8.4040      1.00000
     19       8.4582      1.00000
     20       8.4630      1.00000
     21       8.6872      1.00000
     22       8.8299      1.00000
     23       9.0451      1.00000
     24       9.2186      1.00000
     25       9.9999     -0.00000
     26      13.3094      0.00000
     27      13.9285      0.00000
     28      18.9304      0.00000

 k-point    11 :       0.3077    0.0769    0.0000
  band No.  band energies     occupation 
      1     -44.8964      1.00000
      2     -44.8940      1.00000
      3     -44.8938      1.00000
      4       2.2039      1.00000
      5       4.6557      1.00000
      6       5.0888      1.00000
      7       5.1910      1.00000
      8       5.6181      1.00000
      9       5.6967      1.00000
     10       5.7019      1.00000
     11       6.6441      1.00000
     12       7.3718      1.00000
     13       7.4247      1.00000
     14       7.4785      1.00000
     15       7.5219      1.00000
     16       7.6687      1.00000
     17       8.1200      1.00000
     18       8.1465      1.00000
     19       8.2202      1.00000
     20       8.2701      1.00000
     21       8.5486      1.00000
     22       8.6014      1.00000
     23       9.0419      1.00000
     24       9.1719      1.00000
     25       9.2192      1.00000
     26      14.1691      0.00000
     27      14.8368      0.00000
     28      18.7813      0.00000

 k-point    12 :       0.3846    0.0769    0.0000
  band No.  band energies     occupation 
      1     -44.8972      1.00000
      2     -44.8940      1.00000
      3     -44.8938      1.00000
      4       2.7965      1.00000
      5       4.4623      1.00000
      6       5.2887      1.00000
      7       5.3953      1.00000
      8       5.8027      1.00000
      9       5.9398      1.00000
     10       5.9551      1.00000
     11       6.4432      1.00000
     12       7.0093      1.00000
     13       7.0537      1.00000
     14       7.3848      1.00000
     15       7.6252      1.00000
     16       7.6844      1.00000
     17       7.7092      1.00000
     18       8.0379      1.00000
     19       8.0830      1.00000
     20       8.2389      1.00000
     21       8.3495      1.00000
     22       8.3768      1.00000
     23       8.7039      1.00000
     24       9.0409      1.00000
     25       9.2197      1.00000
     26      15.0843      0.00000
     27      15.8332      0.00000
     28      17.9879      0.00000

 k-point    13 :       0.4615    0.0769    0.0000
  band No.  band energies     occupation 
      1     -44.8977      1.00000
      2     -44.8940      1.00000
      3     -44.8938      1.00000
      4       3.4384      1.00000
      5       4.0364      1.00000
      6       5.4170      1.00000
      7       5.5278      1.00000
      8       6.0086      1.00000
      9       6.2279      1.00000
     10       6.2315      1.00000
     11       6.2606      1.00000
     12       6.6038      1.00000
     13       6.6429      1.00000
     14       7.3310      1.00000
     15       7.3984      1.00000
     16       7.8465      1.00000
     17       7.8919      1.00000
     18       7.9240      1.00000
     19       7.9629      1.00000
     20       8.0937      1.00000
     21       8.1344      1.00000
     22       8.3483      1.00000
     23       8.4939      1.00000
     24       9.0406      1.00000
     25       9.2199      1.00000
     26      16.0357      0.00000
     27      16.8973      0.00000
     28      17.0116      0.00000

 k-point    14 :       0.1538    0.1538    0.0000
  band No.  band energies     occupation 
      1     -44.8947      1.00000
      2     -44.8944      1.00000
      3     -44.8937      1.00000
      4       1.5662      1.00000
      5       4.7474      1.00000
      6       4.7788      1.00000
      7       4.9054      1.00000
      8       5.4231      1.00000
      9       5.4392      1.00000
     10       5.4430      1.00000
     11       6.9014      1.00000
     12       7.2049      1.00000
     13       7.2146      1.00000
     14       7.8542      1.00000
     15       8.0257      1.00000
     16       8.2128      1.00000
     17       8.2204      1.00000
     18       8.3059      1.00000
     19       8.4733      1.00000
     20       8.6179      1.00000
     21       8.6516      1.00000
     22       8.9476      1.00000
     23       9.0193      1.00000
     24       9.1293      1.00000
     25      11.5738     -0.00000
     26      11.6399      0.00000
     27      13.6476      0.00000
     28      18.8680      0.00000

 k-point    15 :       0.2308    0.1538    0.0000
  band No.  band energies     occupation 
      1     -44.8954      1.00000
      2     -44.8945      1.00000
      3     -44.8938      1.00000
      4       1.9251      1.00000
      5       4.8137      1.00000
      6       4.9492      1.00000
      7       5.0645      1.00000
      8       5.5350      1.00000
      9       5.5681      1.00000
     10       5.5697      1.00000
     11       6.7943      1.00000
     12       7.2666      1.00000
     13       7.2979      1.00000
     14       7.7680      1.00000
     15       7.7763      1.00000
     16       7.8496      1.00000
     17       7.9938      1.00000
     18       8.0961      1.00000
     19       8.3365      1.00000
     20       8.4672      1.00000
     21       8.5754      1.00000
     22       8.8187      1.00000
     23       8.9546      1.00000
     24       9.0971      1.00000
     25      10.5920     -0.00000
     26      12.3167      0.00000
     27      14.3637      0.00000
     28      18.5260      0.00000

 k-point    16 :       0.3077    0.1538    0.0000
  band No.  band energies     occupation 
      1     -44.8963      1.00000
      2     -44.8945      1.00000
      3     -44.8938      1.00000
      4       2.4082      1.00000
      5       4.7979      1.00000
      6       5.1670      1.00000
      7       5.2708      1.00000
      8       5.6811      1.00000
      9       5.7362      1.00000
     10       5.7557      1.00000
     11       6.6402      1.00000
     12       7.2732      1.00000
     13       7.3236      1.00000
     14       7.4157      1.00000
     15       7.4593      1.00000
     16       7.6554      1.00000
     17       7.7119      1.00000
     18       8.1675      1.00000
     19       8.2038      1.00000
     20       8.2787      1.00000
     21       8.4640      1.00000
     22       8.5975      1.00000
     23       8.9351      1.00000
     24       9.0898      1.00000
     25       9.7372     -0.03402
     26      13.0859      0.00000
     27      15.2227      0.00000
     28      17.5990      0.00000

 k-point    17 :       0.3846    0.1538    0.0000
  band No.  band energies     occupation 
      1     -44.8971      1.00000
      2     -44.8945      1.00000
      3     -44.8939      1.00000
      4       2.9886      1.00000
      5       4.6162      1.00000
      6       5.3790      1.00000
      7       5.4816      1.00000
      8       5.8557      1.00000
      9       5.9376      1.00000
     10       5.9951      1.00000
     11       6.4556      1.00000
     12       6.8644      1.00000
     13       7.0191      1.00000
     14       7.2540      1.00000
     15       7.3403      1.00000
     16       7.6296      1.00000
     17       7.7538      1.00000
     18       8.0083      1.00000
     19       8.0850      1.00000
     20       8.2903      1.00000
     21       8.3474      1.00000
     22       8.3602      1.00000
     23       8.9275      1.00000
     24       9.0873      1.00000
     25       9.1415      1.00000
     26      13.8965      0.00000
     27      16.1832      0.00000
     28      16.5946      0.00000

 k-point    18 :       0.4615    0.1538    0.0000
  band No.  band energies     occupation 
      1     -44.8975      1.00000
      2     -44.8945      1.00000
      3     -44.8939      1.00000
      4       3.6165      1.00000
      5       4.2013      1.00000
      6       5.5201      1.00000
      7       5.6250      1.00000
      8       6.0498      1.00000
      9       6.1718      1.00000
     10       6.2543      1.00000
     11       6.2829      1.00000
     12       6.4976      1.00000
     13       6.6412      1.00000
     14       7.1629      1.00000
     15       7.1842      1.00000
     16       7.8479      1.00000
     17       7.8918      1.00000
     18       7.9163      1.00000
     19       7.9551      1.00000
     20       8.0932      1.00000
     21       8.1010      1.00000
     22       8.5293      1.00000
     23       8.7731      1.00000
     24       8.9247      1.00000
     25       9.0864      1.00000
     26      14.7456      0.00000
     27      15.6423      0.00000
     28      17.2213      0.00000

 k-point    19 :       0.2308    0.2308    0.0000
  band No.  band energies     occupation 
      1     -44.8956      1.00000
      2     -44.8951      1.00000
      3     -44.8938      1.00000
      4       2.2727      1.00000
      5       5.0011      1.00000
      6       5.0317      1.00000
      7       5.2068      1.00000
      8       5.6453      1.00000
      9       5.6710      1.00000
     10       5.6804      1.00000
     11       6.7296      1.00000
     12       7.2604      1.00000
     13       7.3609      1.00000
     14       7.4838      1.00000
     15       7.5399      1.00000
     16       7.6030      1.00000
     17       7.7286      1.00000
     18       8.1915      1.00000
     19       8.2216      1.00000
     20       8.4249      1.00000
     21       8.4322      1.00000
     22       8.7817      1.00000
     23       8.8309      1.00000
     24       8.9775      1.00000
     25      11.1982     -0.00000
     26      11.3079     -0.00000
     27      15.0115      0.00000
     28      17.4466      0.00000

 k-point    20 :       0.3077    0.2308    0.0000
  band No.  band energies     occupation 
      1     -44.8963      1.00000
      2     -44.8953      1.00000
      3     -44.8939      1.00000
      4       2.7393      1.00000
      5       5.0191      1.00000
      6       5.2601      1.00000
      7       5.3979      1.00000
      8       5.7828      1.00000
      9       5.8030      1.00000
     10       5.8445      1.00000
     11       6.6161      1.00000
     12       7.0633      1.00000
     13       7.2099      1.00000
     14       7.2617      1.00000
     15       7.2906      1.00000
     16       7.4806      1.00000
     17       7.6752      1.00000
     18       8.0778      1.00000
     19       8.2423      1.00000
     20       8.3173      1.00000
     21       8.3681      1.00000
     22       8.5908      1.00000
     23       8.7852      1.00000
     24       8.9228      1.00000
     25      10.3282     -0.00000
     26      11.9543      0.00000
     27      15.8129      0.00000
     28      16.3130      0.00000

 k-point    21 :       0.3846    0.2308    0.0000
  band No.  band energies     occupation 
      1     -44.8970      1.00000
      2     -44.8953      1.00000
      3     -44.8939      1.00000
      4       3.2977      1.00000
      5       4.8564      1.00000
      6       5.5013      1.00000
      7       5.6108      1.00000
      8       5.9413      1.00000
      9       5.9417      1.00000
     10       6.0593      1.00000
     11       6.4657      1.00000
     12       6.6755      1.00000
     13       6.9561      1.00000
     14       7.0104      1.00000
     15       7.1572      1.00000
     16       7.6496      1.00000
     17       7.6984      1.00000
     18       7.9413      1.00000
     19       8.0587      1.00000
     20       8.1715      1.00000
     21       8.3459      1.00000
     22       8.5608      1.00000
     23       8.7664      1.00000
     24       8.9025      1.00000
     25       9.6315      0.27876
     26      12.6903      0.00000
     27      15.2706      0.00000
     28      16.7279      0.00000

 k-point    22 :       0.4615    0.2308    0.0000
  band No.  band energies     occupation 
      1     -44.8974      1.00000
      2     -44.8953      1.00000
      3     -44.8939      1.00000
      4       3.8997      1.00000
      5       4.4601      1.00000
      6       5.6755      1.00000
      7       5.7739      1.00000
      8       6.0843      1.00000
      9       6.1145      1.00000
     10       6.2920      1.00000
     11       6.3169      1.00000
     12       6.3533      1.00000
     13       6.6345      1.00000
     14       6.9536      1.00000
     15       7.0332      1.00000
     16       7.8097      1.00000
     17       7.8575      1.00000
     18       7.8698      1.00000
     19       7.9173      1.00000
     20       7.9911      1.00000
     21       8.0965      1.00000
     22       8.7576      1.00000
     23       8.8132      1.00000
     24       8.8953      1.00000
     25       9.1504      1.00000
     26      13.4757      0.00000
     27      14.3298      0.00000
     28      17.7312      0.00000

 k-point    23 :       0.3077    0.3077    0.0000
  band No.  band energies     occupation 
      1     -44.8963      1.00000
      2     -44.8960      1.00000
      3     -44.8939      1.00000
      4       3.1810      1.00000
      5       5.2864      1.00000
      6       5.3008      1.00000
      7       5.5652      1.00000
      8       5.8896      1.00000
      9       5.9129      1.00000
     10       5.9719      1.00000
     11       6.5569      1.00000
     12       6.8386      1.00000
     13       6.8507      1.00000
     14       7.0945      1.00000
     15       7.1837      1.00000
     16       7.5639      1.00000
     17       7.6067      1.00000
     18       7.9585      1.00000
     19       8.1477      1.00000
     20       8.1643      1.00000
     21       8.5681      1.00000
     22       8.5709      1.00000
     23       8.6005      1.00000
     24       8.7878      1.00000
     25      10.8815     -0.00000
     26      11.0258     -0.00000
     27      15.1305      0.00000
     28      16.5606      0.00000

 k-point    24 :       0.3846    0.3077    0.0000
  band No.  band energies     occupation 
      1     -44.8969      1.00000
      2     -44.8960      1.00000
      3     -44.8939      1.00000
      4       3.7052      1.00000
      5       5.1550      1.00000
      6       5.5779      1.00000
      7       5.7610      1.00000
      8       5.9642      1.00000
      9       6.0529      1.00000
     10       6.1456      1.00000
     11       6.4603      1.00000
     12       6.5139      1.00000
     13       6.7292      1.00000
     14       6.8602      1.00000
     15       7.0765      1.00000
     16       7.5954      1.00000
     17       7.7016      1.00000
     18       7.8418      1.00000
     19       7.9748      1.00000
     20       8.0134      1.00000
     21       8.3478      1.00000
     22       8.5751      1.00000
     23       8.7128      1.00000
     24       8.8343      1.00000
     25      10.1586     -0.00000
     26      11.6221      0.00000
     27      14.0790      0.00000
     28      17.4300      0.00000

 k-point    25 :       0.4615    0.3077    0.0000
  band No.  band energies     occupation 
      1     -44.8972      1.00000
      2     -44.8960      1.00000
      3     -44.8940      1.00000
      4       4.2649      1.00000
      5       4.7858      1.00000
      6       5.8157      1.00000
      7       5.9480      1.00000
      8       5.9892      1.00000
      9       6.1957      1.00000
     10       6.2344      1.00000
     11       6.3319      1.00000
     12       6.3574      1.00000
     13       6.6180      1.00000
     14       6.7744      1.00000
     15       6.9199      1.00000
     16       7.6791      1.00000
     17       7.7839      1.00000
     18       7.8234      1.00000
     19       7.8521      1.00000
     20       7.8861      1.00000
     21       8.1098      1.00000
     22       8.5671      1.00000
     23       8.6817      1.00000
     24       9.1577      1.00000
     25       9.5799      0.70024
     26      12.3453      0.00000
     27      13.1566      0.00000
     28      18.3958      0.00000

 k-point    26 :       0.3846    0.3846    0.0000
  band No.  band energies     occupation 
      1     -44.8968      1.00000
      2     -44.8966      1.00000
      3     -44.8940      1.00000
      4       4.1802      1.00000
      5       5.4613      1.00000
      6       5.4699      1.00000
      7       5.8744      1.00000
      8       6.0336      1.00000
      9       6.1741      1.00000
     10       6.2570      1.00000
     11       6.4287      1.00000
     12       6.4904      1.00000
     13       6.5015      1.00000
     14       6.7323      1.00000
     15       6.9799      1.00000
     16       7.5242      1.00000
     17       7.7332      1.00000
     18       7.7995      1.00000
     19       7.8298      1.00000
     20       7.8532      1.00000
     21       8.3498      1.00000
     22       8.3660      1.00000
     23       8.5676      1.00000
     24       9.1611      1.00000
     25      10.6576     -0.00000
     26      10.8259     -0.00000
     27      13.0395      0.00000
     28      18.2578      0.00000

 k-point    27 :       0.4615    0.3846    0.0000
  band No.  band energies     occupation 
      1     -44.8971      1.00000
      2     -44.8967      1.00000
      3     -44.8940      1.00000
      4       4.6757      1.00000
      5       5.1351      1.00000
      6       5.7167      1.00000
      7       5.8791      1.00000
      8       6.1581      1.00000
      9       6.2809      1.00000
     10       6.3106      1.00000
     11       6.3638      1.00000
     12       6.3966      1.00000
     13       6.5885      1.00000
     14       6.6343      1.00000
     15       6.8230      1.00000
     16       7.5550      1.00000
     17       7.6690      1.00000
     18       7.6791      1.00000
     19       7.7161      1.00000
     20       7.9463      1.00000
     21       8.1421      1.00000
     22       8.3756      1.00000
     23       8.4823      1.00000
     24       9.5568      0.85616
     25      10.0625     -0.00000
     26      11.3989     -0.00000
     27      12.1519      0.00000
     28      19.1870      0.00000

 k-point    28 :       0.4615    0.4615    0.0000
  band No.  band energies     occupation 
      1     -44.8970      1.00000
      2     -44.8970      1.00000
      3     -44.8940      1.00000
      4       5.0815      1.00000
      5       5.4380      1.00000
      6       5.4621      1.00000
      7       5.7127      1.00000
      8       6.3482      1.00000
      9       6.3540      1.00000
     10       6.3745      1.00000
     11       6.4276      1.00000
     12       6.4930      1.00000
     13       6.5273      1.00000
     14       6.5538      1.00000
     15       6.6962      1.00000
     16       7.5088      1.00000
     17       7.5694      1.00000
     18       7.5763      1.00000
     19       7.5902      1.00000
     20       8.0465      1.00000
     21       8.1996      1.00000
     22       8.2014      1.00000
     23       8.3306      1.00000
     24      10.0309     -0.00000
     25      10.5433     -0.00000
     26      10.7235     -0.00000
     27      11.3216     -0.00000
     28      20.0814      0.00000

 k-point    29 :       0.0769    0.0769    0.0769
  band No.  band energies     occupation 
      1     -44.8940      1.00000
      2     -44.8938      1.00000
      3     -44.8938      1.00000
      4       1.1968      1.00000
      5       4.6194      1.00000
      6       4.6194      1.00000
      7       4.7443      1.00000
      8       5.3051      1.00000
      9       5.3051      1.00000
     10       5.3116      1.00000
     11       7.0117      1.00000
     12       7.1259      1.00000
     13       7.1259      1.00000
     14       7.9614      1.00000
     15       7.9614      1.00000
     16       8.6067      1.00000
     17       8.6616      1.00000
     18       8.6616      1.00000
     19       8.7523      1.00000
     20       8.7523      1.00000
     21       8.8734      1.00000
     22       9.0272      1.00000
     23       9.1729      1.00000
     24       9.1729      1.00000
     25      12.1560      0.00000
     26      12.1560      0.00000
     27      12.1829      0.00000
     28      19.3552      0.00000

 k-point    30 :       0.1538    0.0769    0.0769
  band No.  band energies     occupation 
      1     -44.8945      1.00000
      2     -44.8939      1.00000
      3     -44.8939      1.00000
      4       1.4196      1.00000
      5       4.6796      1.00000
      6       4.7333      1.00000
      7       4.8408      1.00000
      8       5.3749      1.00000
      9       5.3866      1.00000
     10       5.3938      1.00000
     11       6.9408      1.00000
     12       7.1780      1.00000
     13       7.1829      1.00000
     14       7.8905      1.00000
     15       8.0012      1.00000
     16       8.3819      1.00000
     17       8.3922      1.00000
     18       8.5379      1.00000
     19       8.5863      1.00000
     20       8.5917      1.00000
     21       8.6478      1.00000
     22       8.9957      1.00000
     23       9.0751      1.00000
     24       9.1797      1.00000
     25      11.2418     -0.00000
     26      12.7108      0.00000
     27      12.7233      0.00000
     28      19.4274      0.00000

 k-point    31 :       0.2308    0.0769    0.0769
  band No.  band energies     occupation 
      1     -44.8954      1.00000
      2     -44.8940      1.00000
      3     -44.8939      1.00000
      4       1.7827      1.00000
      5       4.7272      1.00000
      6       4.9078      1.00000
      7       5.0071      1.00000
      8       5.4880      1.00000
      9       5.5216      1.00000
     10       5.5304      1.00000
     11       6.8142      1.00000
     12       7.2701      1.00000
     13       7.2765      1.00000
     14       7.7912      1.00000
     15       7.9246      1.00000
     16       7.9273      1.00000
     17       8.0651      1.00000
     18       8.3597      1.00000
     19       8.3923      1.00000
     20       8.4354      1.00000
     21       8.4837      1.00000
     22       8.9065      1.00000
     23       9.0233      1.00000
     24       9.1802      1.00000
     25      10.2269     -0.00000
     26      13.4479      0.00000
     27      13.4555      0.00000
     28      19.5076      0.00000

 k-point    32 :       0.3077    0.0769    0.0769
  band No.  band energies     occupation 
      1     -44.8964      1.00000
      2     -44.8940      1.00000
      3     -44.8939      1.00000
      4       2.2718      1.00000
      5       4.7022      1.00000
      6       5.1175      1.00000
      7       5.2173      1.00000
      8       5.6392      1.00000
      9       5.7080      1.00000
     10       5.7199      1.00000
     11       6.6462      1.00000
     12       7.3514      1.00000
     13       7.3922      1.00000
     14       7.4544      1.00000
     15       7.4665      1.00000
     16       7.7217      1.00000
     17       7.9689      1.00000
     18       8.1468      1.00000
     19       8.2145      1.00000
     20       8.2523      1.00000
     21       8.3367      1.00000
     22       8.7718      1.00000
     23       9.0116      1.00000
     24       9.1788      1.00000
     25       9.3722      1.00248
     26      14.2842      0.00000
     27      14.2878      0.00000
     28      19.1175      0.00000

 k-point    33 :       0.3846    0.0769    0.0769
  band No.  band energies     occupation 
      1     -44.8972      1.00000
      2     -44.8941      1.00000
      3     -44.8940      1.00000
      4       2.8600      1.00000
      5       4.5121      1.00000
      6       5.3203      1.00000
      7       5.4247      1.00000
      8       5.8210      1.00000
      9       5.9402      1.00000
     10       5.9597      1.00000
     11       6.4501      1.00000
     12       7.0003      1.00000
     13       7.0109      1.00000
     14       7.3365      1.00000
     15       7.5625      1.00000
     16       7.5684      1.00000
     17       7.8074      1.00000
     18       8.0330      1.00000
     19       8.0732      1.00000
     20       8.1500      1.00000
     21       8.2582      1.00000
     22       8.6346      1.00000
     23       8.7676      1.00000
     24       9.0073      1.00000
     25       9.1792      1.00000
     26      15.1754      0.00000
     27      15.1763      0.00000
     28      18.1722      0.00000

 k-point    34 :       0.4615    0.0769    0.0769
  band No.  band energies     occupation 
      1     -44.8976      1.00000
      2     -44.8941      1.00000
      3     -44.8940      1.00000
      4       3.4969      1.00000
      5       4.0900      1.00000
      6       5.4527      1.00000
      7       5.5613      1.00000
      8       6.0237      1.00000
      9       6.1987      1.00000
     10       6.2358      1.00000
     11       6.2528      1.00000
     12       6.6004      1.00000
     13       6.6428      1.00000
     14       7.2736      1.00000
     15       7.3194      1.00000
     16       7.7512      1.00000
     17       7.9179      1.00000
     18       7.9514      1.00000
     19       7.9541      1.00000
     20       8.0377      1.00000
     21       8.3497      1.00000
     22       8.3672      1.00000
     23       8.5060      1.00000
     24       9.0056      1.00000
     25       9.1788      1.00000
     26      16.0554      0.00000
     27      16.0683      0.00000
     28      17.2168      0.00000

 k-point    35 :       0.1538    0.1538    0.0769
  band No.  band energies     occupation 
      1     -44.8947      1.00000
      2     -44.8944      1.00000
      3     -44.8939      1.00000
      4       1.6381      1.00000
      5       4.7847      1.00000
      6       4.8117      1.00000
      7       4.9289      1.00000
      8       5.4469      1.00000
      9       5.4569      1.00000
     10       5.4711      1.00000
     11       6.8959      1.00000
     12       7.2099      1.00000
     13       7.2152      1.00000
     14       7.8798      1.00000
     15       8.0055      1.00000
     16       8.1591      1.00000
     17       8.1671      1.00000
     18       8.2549      1.00000
     19       8.4330      1.00000
     20       8.5170      1.00000
     21       8.5286      1.00000
     22       8.9559      1.00000
     23       9.0515      1.00000
     24       9.1140      1.00000
     25      11.7386      0.00000
     26      11.7960      0.00000
     27      13.1862      0.00000
     28      19.4166      0.00000

 k-point    36 :       0.2308    0.1538    0.0769
  band No.  band energies     occupation 
      1     -44.8954      1.00000
      2     -44.8945      1.00000
      3     -44.8939      1.00000
      4       1.9941      1.00000
      5       4.8515      1.00000
      6       4.9796      1.00000
      7       5.0864      1.00000
      8       5.5566      1.00000
      9       5.5798      1.00000
     10       5.5982      1.00000
     11       6.7947      1.00000
     12       7.2637      1.00000
     13       7.2857      1.00000
     14       7.7381      1.00000
     15       7.7924      1.00000
     16       7.8139      1.00000
     17       7.9409      1.00000
     18       8.0811      1.00000
     19       8.3038      1.00000
     20       8.3934      1.00000
     21       8.4074      1.00000
     22       8.8957      1.00000
     23       8.9751      1.00000
     24       9.0883      1.00000
     25      10.7332     -0.00000
     26      12.4373      0.00000
     27      13.8440      0.00000
     28      18.8368      0.00000

 k-point    37 :       0.3077    0.1538    0.0769
  band No.  band energies     occupation 
      1     -44.8963      1.00000
      2     -44.8945      1.00000
      3     -44.8940      1.00000
      4       2.4728      1.00000
      5       4.8365      1.00000
      6       5.1940      1.00000
      7       5.2932      1.00000
      8       5.7016      1.00000
      9       5.7440      1.00000
     10       5.7731      1.00000
     11       6.6468      1.00000
     12       7.2675      1.00000
     13       7.3097      1.00000
     14       7.3683      1.00000
     15       7.4131      1.00000
     16       7.6005      1.00000
     17       7.7846      1.00000
     18       8.1459      1.00000
     19       8.1877      1.00000
     20       8.2298      1.00000
     21       8.2505      1.00000
     22       8.7785      1.00000
     23       8.9326      1.00000
     24       9.0758      1.00000
     25       9.8381     -0.00232
     26      13.1781      0.00000
     27      14.6074      0.00000
     28      17.8129      0.00000

 k-point    38 :       0.3846    0.1538    0.0769
  band No.  band energies     occupation 
      1     -44.8971      1.00000
      2     -44.8945      1.00000
      3     -44.8940      1.00000
      4       3.0473      1.00000
      5       4.6562      1.00000
      6       5.4077      1.00000
      7       5.5075      1.00000
      8       5.8754      1.00000
      9       5.9303      1.00000
     10       5.9882      1.00000
     11       6.4679      1.00000
     12       6.8799      1.00000
     13       6.9922      1.00000
     14       7.2351      1.00000
     15       7.2961      1.00000
     16       7.5292      1.00000
     17       7.8876      1.00000
     18       7.9924      1.00000
     19       8.0465      1.00000
     20       8.0609      1.00000
     21       8.3416      1.00000
     22       8.6138      1.00000
     23       8.9154      1.00000
     24       9.0673      1.00000
     25       9.1755      1.00000
     26      13.9622      0.00000
     27      15.3787      0.00000
     28      16.8799      0.00000

 k-point    39 :       0.4615    0.1538    0.0769
  band No.  band energies     occupation 
      1     -44.8975      1.00000
      2     -44.8945      1.00000
      3     -44.8940      1.00000
      4       3.6681      1.00000
      5       4.2458      1.00000
      6       5.5552      1.00000
      7       5.6578      1.00000
      8       6.0675      1.00000
      9       6.1106      1.00000
     10       6.2129      1.00000
     11       6.2755      1.00000
     12       6.5638      1.00000
     13       6.6713      1.00000
     14       7.1348      1.00000
     15       7.1579      1.00000
     16       7.6844      1.00000
     17       7.8658      1.00000
     18       7.8925      1.00000
     19       7.9303      1.00000
     20       8.1125      1.00000
     21       8.3833      1.00000
     22       8.5137      1.00000
     23       8.7561      1.00000
     24       8.9088      1.00000
     25       9.0654      1.00000
     26      14.7712      0.00000
     27      15.5165      0.00000
     28      16.7057      0.00000

 k-point    40 :       0.2308    0.2308    0.0769
  band No.  band energies     occupation 
      1     -44.8956      1.00000
      2     -44.8951      1.00000
      3     -44.8940      1.00000
      4       2.3377      1.00000
      5       5.0297      1.00000
      6       5.0620      1.00000
      7       5.2249      1.00000
      8       5.6647      1.00000
      9       5.6785      1.00000
     10       5.7094      1.00000
     11       6.7364      1.00000
     12       7.2563      1.00000
     13       7.3272      1.00000
     14       7.4650      1.00000
     15       7.5149      1.00000
     16       7.5604      1.00000
     17       7.7890      1.00000
     18       8.1728      1.00000
     19       8.1746      1.00000
     20       8.3042      1.00000
     21       8.3081      1.00000
     22       8.8352      1.00000
     23       8.9044      1.00000
     24       8.9949      1.00000
     25      11.3000     -0.00000
     26      11.3994     -0.00000
     27      14.4077      0.00000
     28      17.6679      0.00000

 k-point    41 :       0.3077    0.2308    0.0769
  band No.  band energies     occupation 
      1     -44.8963      1.00000
      2     -44.8953      1.00000
      3     -44.8940      1.00000
      4       2.7980      1.00000
      5       5.0433      1.00000
      6       5.2800      1.00000
      7       5.4132      1.00000
      8       5.8009      1.00000
      9       5.8073      1.00000
     10       5.8638      1.00000
     11       6.6310      1.00000
     12       7.0699      1.00000
     13       7.1998      1.00000
     14       7.2500      1.00000
     15       7.2663      1.00000
     16       7.4017      1.00000
     17       7.7808      1.00000
     18       8.0347      1.00000
     19       8.1501      1.00000
     20       8.1633      1.00000
     21       8.3406      1.00000
     22       8.7271      1.00000
     23       8.8260      1.00000
     24       8.9425      1.00000
     25      10.3910     -0.00000
     26      12.0226      0.00000
     27      15.0157      0.00000
     28      16.6327      0.00000

 k-point    42 :       0.3846    0.2308    0.0769
  band No.  band energies     occupation 
      1     -44.8970      1.00000
      2     -44.8953      1.00000
      3     -44.8941      1.00000
      4       3.3478      1.00000
      5       4.8776      1.00000
      6       5.5175      1.00000
      7       5.6267      1.00000
      8       5.9230      1.00000
      9       5.9638      1.00000
     10       6.0433      1.00000
     11       6.4887      1.00000
     12       6.7241      1.00000
     13       6.9577      1.00000
     14       7.0061      1.00000
     15       7.1512      1.00000
     16       7.4973      1.00000
     17       7.8769      1.00000
     18       7.9079      1.00000
     19       7.9719      1.00000
     20       8.0035      1.00000
     21       8.5318      1.00000
     22       8.5573      1.00000
     23       8.7863      1.00000
     24       8.9155      1.00000
     25       9.6511      0.14780
     26      12.7360      0.00000
     27      15.0550      0.00000
     28      16.3652      0.00000

 k-point    43 :       0.4615    0.2308    0.0769
  band No.  band energies     occupation 
      1     -44.8974      1.00000
      2     -44.8953      1.00000
      3     -44.8941      1.00000
      4       3.9385      1.00000
      5       4.4873      1.00000
      6       5.7050      1.00000
      7       5.8029      1.00000
      8       5.9968      1.00000
      9       6.1136      1.00000
     10       6.1735      1.00000
     11       6.3260      1.00000
     12       6.5361      1.00000
     13       6.7008      1.00000
     14       6.9509      1.00000
     15       7.0286      1.00000
     16       7.6250      1.00000
     17       7.7902      1.00000
     18       7.8305      1.00000
     19       7.8774      1.00000
     20       8.0801      1.00000
     21       8.3229      1.00000
     22       8.7688      1.00000
     23       8.7918      1.00000
     24       8.9034      1.00000
     25       9.1380      1.00000
     26      13.4956      0.00000
     27      14.3019      0.00000
     28      17.0647      0.00000

 k-point    44 :       0.3077    0.3077    0.0769
  band No.  band energies     occupation 
      1     -44.8963      1.00000
      2     -44.8959      1.00000
      3     -44.8941      1.00000
      4       3.2305      1.00000
      5       5.2849      1.00000
      6       5.3073      1.00000
      7       5.5699      1.00000
      8       5.8870      1.00000
      9       5.9331      1.00000
     10       5.9947      1.00000
     11       6.5836      1.00000
     12       6.8625      1.00000
     13       6.8701      1.00000
     14       7.0943      1.00000
     15       7.1830      1.00000
     16       7.4149      1.00000
     17       7.7781      1.00000
     18       7.9063      1.00000
     19       8.0289      1.00000
     20       8.0437      1.00000
     21       8.5495      1.00000
     22       8.6555      1.00000
     23       8.6995      1.00000
     24       8.8245      1.00000
     25      10.9261     -0.00000
     26      11.0620     -0.00000
     27      14.8858      0.00000
     28      16.2463      0.00000

 k-point    45 :       0.3846    0.3077    0.0769
  band No.  band energies     occupation 
      1     -44.8968      1.00000
      2     -44.8960      1.00000
      3     -44.8941      1.00000
      4       3.7414      1.00000
      5       5.1447      1.00000
      6       5.5540      1.00000
      7       5.7474      1.00000
      8       5.9522      1.00000
      9       6.0796      1.00000
     10       6.1428      1.00000
     11       6.5006      1.00000
     12       6.5982      1.00000
     13       6.7540      1.00000
     14       6.9012      1.00000
     15       7.0779      1.00000
     16       7.4537      1.00000
     17       7.7889      1.00000
     18       7.8665      1.00000
     19       7.8675      1.00000
     20       7.8994      1.00000
     21       8.4866      1.00000
     22       8.6335      1.00000
     23       8.7522      1.00000
     24       8.8116      1.00000
     25      10.1681     -0.00000
     26      11.6457      0.00000
     27      14.0208      0.00000
     28      16.8316      0.00000

 k-point    46 :       0.4615    0.3077    0.0769
  band No.  band energies     occupation 
      1     -44.8972      1.00000
      2     -44.8960      1.00000
      3     -44.8941      1.00000
      4       4.2832      1.00000
      5       4.7849      1.00000
      6       5.7701      1.00000
      7       5.8973      1.00000
      8       5.9743      1.00000
      9       6.1195      1.00000
     10       6.2573      1.00000
     11       6.3888      1.00000
     12       6.5354      1.00000
     13       6.7128      1.00000
     14       6.7933      1.00000
     15       6.9261      1.00000
     16       7.5479      1.00000
     17       7.6952      1.00000
     18       7.7313      1.00000
     19       7.7795      1.00000
     20       8.0415      1.00000
     21       8.2664      1.00000
     22       8.6080      1.00000
     23       8.7196      1.00000
     24       9.1343      1.00000
     25       9.5655      0.80232
     26      12.3534      0.00000
     27      13.1437      0.00000
     28      17.6391      0.00000

 k-point    47 :       0.3846    0.3846    0.0769
  band No.  band energies     occupation 
      1     -44.8968      1.00000
      2     -44.8966      1.00000
      3     -44.8941      1.00000
      4       4.1961      1.00000
      5       5.4051      1.00000
      6       5.4145      1.00000
      7       5.7969      1.00000
      8       6.0569      1.00000
      9       6.2247      1.00000
     10       6.2806      1.00000
     11       6.4917      1.00000
     12       6.5655      1.00000
     13       6.5696      1.00000
     14       6.8163      1.00000
     15       6.9871      1.00000
     16       7.4206      1.00000
     17       7.6757      1.00000
     18       7.7360      1.00000
     19       7.7578      1.00000
     20       7.9198      1.00000
     21       8.4394      1.00000
     22       8.4595      1.00000
     23       8.6179      1.00000
     24       9.1356      1.00000
     25      10.6612     -0.00000
     26      10.8238     -0.00000
     27      13.0144      0.00000
     28      17.5306      0.00000

 k-point    48 :       0.4615    0.3846    0.0769
  band No.  band energies     occupation 
      1     -44.8971      1.00000
      2     -44.8966      1.00000
      3     -44.8941      1.00000
      4       4.6644      1.00000
      5       5.0943      1.00000
      6       5.6116      1.00000
      7       5.7712      1.00000
      8       6.1826      1.00000
      9       6.2930      1.00000
     10       6.3770      1.00000
     11       6.4515      1.00000
     12       6.5482      1.00000
     13       6.6547      1.00000
     14       6.7171      1.00000
     15       6.8367      1.00000
     16       7.4633      1.00000
     17       7.5846      1.00000
     18       7.6108      1.00000
     19       7.6448      1.00000
     20       8.0530      1.00000
     21       8.2464      1.00000
     22       8.4386      1.00000
     23       8.5390      1.00000
     24       9.5317      0.96871
     25      10.0456     -0.00000
     26      11.3925     -0.00000
     27      12.1386      0.00000
     28      18.3393      0.00000

 k-point    49 :       0.4615    0.4615    0.0769
  band No.  band energies     occupation 
      1     -44.8970      1.00000
      2     -44.8970      1.00000
      3     -44.8942      1.00000
      4       5.0329      1.00000
      5       5.3627      1.00000
      6       5.3665      1.00000
      7       5.6059      1.00000
      8       6.3749      1.00000
      9       6.4710      1.00000
     10       6.4865      1.00000
     11       6.4965      1.00000
     12       6.5644      1.00000
     13       6.5683      1.00000
     14       6.6806      1.00000
     15       6.7224      1.00000
     16       7.4339      1.00000
     17       7.4985      1.00000
     18       7.5096      1.00000
     19       7.5223      1.00000
     20       8.1301      1.00000
     21       8.2734      1.00000
     22       8.2769      1.00000
     23       8.3959      1.00000
     24      10.0066     -0.00000
     25      10.5270     -0.00000
     26      10.7030     -0.00000
     27      11.3048     -0.00000
     28      19.1377      0.00000

 k-point    50 :       0.1538    0.1538    0.1538
  band No.  band energies     occupation 
      1     -44.8948      1.00000
      2     -44.8944      1.00000
      3     -44.8944      1.00000
      4       1.8514      1.00000
      5       4.8924      1.00000
      6       4.8924      1.00000
      7       5.0046      1.00000
      8       5.5175      1.00000
      9       5.5175      1.00000
     10       5.5473      1.00000
     11       6.8651      1.00000
     12       7.2282      1.00000
     13       7.2282      1.00000
     14       7.9521      1.00000
     15       7.9521      1.00000
     16       7.9731      1.00000
     17       7.9731      1.00000
     18       8.0366      1.00000
     19       8.3160      1.00000
     20       8.3655      1.00000
     21       8.3655      1.00000
     22       8.9489      1.00000
     23       9.0718      1.00000
     24       9.0718      1.00000
     25      12.1683      0.00000
     26      12.1683      0.00000
     27      12.2293      0.00000
     28      20.3567      0.00000

 k-point    51 :       0.2308    0.1538    0.1538
  band No.  band energies     occupation 
      1     -44.8954      1.00000
      2     -44.8946      1.00000
      3     -44.8944      1.00000
      4       2.1984      1.00000
      5       4.9596      1.00000
      6       5.0585      1.00000
      7       5.1510      1.00000
      8       5.6205      1.00000
      9       5.6310      1.00000
     10       5.6685      1.00000
     11       6.7872      1.00000
     12       7.2587      1.00000
     13       7.2659      1.00000
     14       7.6337      1.00000
     15       7.6346      1.00000
     16       7.7386      1.00000
     17       7.8956      1.00000
     18       8.0594      1.00000
     19       8.1923      1.00000
     20       8.2214      1.00000
     21       8.2448      1.00000
     22       8.9170      1.00000
     23       9.0080      1.00000
     24       9.0601      1.00000
     25      11.1058     -0.00000
     26      12.7551      0.00000
     27      12.7802      0.00000
     28      19.2492      0.00000

 k-point    52 :       0.3077    0.1538    0.1538
  band No.  band energies     occupation 
      1     -44.8963      1.00000
      2     -44.8946      1.00000
      3     -44.8944      1.00000
      4       2.6636      1.00000
      5       4.9461      1.00000
      6       5.2638      1.00000
      7       5.3538      1.00000
      8       5.7618      1.00000
      9       5.7737      1.00000
     10       5.8259      1.00000
     11       6.6622      1.00000
     12       7.2433      1.00000
     13       7.2529      1.00000
     14       7.2655      1.00000
     15       7.3446      1.00000
     16       7.4253      1.00000
     17       7.9064      1.00000
     18       8.0409      1.00000
     19       8.0668      1.00000
     20       8.1090      1.00000
     21       8.2006      1.00000
     22       8.8658      1.00000
     23       8.9330      1.00000
     24       9.0364      1.00000
     25      10.1389     -0.00000
     26      13.4240      0.00000
     27      13.4339      0.00000
     28      18.1524      0.00000

 k-point    53 :       0.3846    0.1538    0.1538
  band No.  band energies     occupation 
      1     -44.8970      1.00000
      2     -44.8947      1.00000
      3     -44.8944      1.00000
      4       3.2197      1.00000
      5       4.7692      1.00000
      6       5.4808      1.00000
      7       5.5741      1.00000
      8       5.9088      1.00000
      9       5.9294      1.00000
     10       5.9933      1.00000
     11       6.5038      1.00000
     12       6.8999      1.00000
     13       6.9425      1.00000
     14       7.1568      1.00000
     15       7.1961      1.00000
     16       7.4305      1.00000
     17       7.8700      1.00000
     18       7.9292      1.00000
     19       7.9613      1.00000
     20       8.0618      1.00000
     21       8.3457      1.00000
     22       8.7740      1.00000
     23       8.8830      1.00000
     24       9.0153      1.00000
     25       9.3625      1.00165
     26      14.1123      0.00000
     27      14.1192      0.00000
     28      17.1807      0.00000

 k-point    54 :       0.4615    0.1538    0.1538
  band No.  band energies     occupation 
      1     -44.8974      1.00000
      2     -44.8947      1.00000
      3     -44.8944      1.00000
      4       3.8176      1.00000
      5       4.3726      1.00000
      6       5.6535      1.00000
      7       5.7498      1.00000
      8       5.9757      1.00000
      9       6.0690      1.00000
     10       6.1499      1.00000
     11       6.3272      1.00000
     12       6.6591      1.00000
     13       6.7465      1.00000
     14       7.0524      1.00000
     15       7.0927      1.00000
     16       7.5521      1.00000
     17       7.7057      1.00000
     18       7.8326      1.00000
     19       7.8636      1.00000
     20       8.3498      1.00000
     21       8.4946      1.00000
     22       8.6478      1.00000
     23       8.7747      1.00000
     24       8.8637      1.00000
     25       9.0076      1.00000
     26      14.6818      0.00000
     27      14.7134      0.00000
     28      16.4525      0.00000

 k-point    55 :       0.2308    0.2308    0.1538
  band No.  band energies     occupation 
      1     -44.8956      1.00000
      2     -44.8951      1.00000
      3     -44.8945      1.00000
      4       2.5293      1.00000
      5       5.1098      1.00000
      6       5.1431      1.00000
      7       5.2697      1.00000
      8       5.7223      1.00000
      9       5.7227      1.00000
     10       5.7798      1.00000
     11       6.7513      1.00000
     12       7.2453      1.00000
     13       7.2686      1.00000
     14       7.3996      1.00000
     15       7.4288      1.00000
     16       7.4416      1.00000
     17       7.9264      1.00000
     18       8.0486      1.00000
     19       8.0817      1.00000
     20       8.0977      1.00000
     21       8.1443      1.00000
     22       8.8895      1.00000
     23       8.9874      1.00000
     24       9.0181      1.00000
     25      11.5825     -0.00000
     26      11.6572      0.00000
     27      13.2372      0.00000
     28      18.0458      0.00000

 k-point    56 :       0.3077    0.2308    0.1538
  band No.  band energies     occupation 
      1     -44.8962      1.00000
      2     -44.8953      1.00000
      3     -44.8945      1.00000
      4       2.9704      1.00000
      5       5.1077      1.00000
      6       5.3272      1.00000
      7       5.4425      1.00000
      8       5.8347      1.00000
      9       5.8598      1.00000
     10       5.9221      1.00000
     11       6.6741      1.00000
     12       7.0845      1.00000
     13       7.1618      1.00000
     14       7.1893      1.00000
     15       7.2304      1.00000
     16       7.3014      1.00000
     17       7.9125      1.00000
     18       7.9271      1.00000
     19       7.9591      1.00000
     20       7.9829      1.00000
     21       8.2965      1.00000
     22       8.8381      1.00000
     23       8.9147      1.00000
     24       8.9762      1.00000
     25      10.5839     -0.00000
     26      12.2132      0.00000
     27      13.7574      0.00000
     28      16.9886      0.00000

 k-point    57 :       0.3846    0.2308    0.1538
  band No.  band energies     occupation 
      1     -44.8969      1.00000
      2     -44.8953      1.00000
      3     -44.8945      1.00000
      4       3.4930      1.00000
      5       4.9334      1.00000
      6       5.5361      1.00000
      7       5.6420      1.00000
      8       5.9123      1.00000
      9       5.9972      1.00000
     10       6.0733      1.00000
     11       6.5594      1.00000
     12       6.8361      1.00000
     13       6.9655      1.00000
     14       6.9937      1.00000
     15       7.1320      1.00000
     16       7.3612      1.00000
     17       7.7505      1.00000
     18       7.8048      1.00000
     19       7.8568      1.00000
     20       8.1048      1.00000
     21       8.4879      1.00000
     22       8.7579      1.00000
     23       8.8304      1.00000
     24       8.9383      1.00000
     25       9.7390     -0.03352
     26      12.8502      0.00000
     27      14.1551      0.00000
     28      16.2579      0.00000

 k-point    58 :       0.4615    0.2308    0.1538
  band No.  band energies     occupation 
      1     -44.8972      1.00000
      2     -44.8953      1.00000
      3     -44.8945      1.00000
      4       4.0487      1.00000
      5       4.5619      1.00000
      6       5.7317      1.00000
      7       5.8416      1.00000
      8       5.8851      1.00000
      9       5.9958      1.00000
     10       6.2464      1.00000
     11       6.4155      1.00000
     12       6.7328      1.00000
     13       6.8365      1.00000
     14       6.9432      1.00000
     15       7.0144      1.00000
     16       7.4580      1.00000
     17       7.5946      1.00000
     18       7.7302      1.00000
     19       7.7626      1.00000
     20       8.3486      1.00000
     21       8.5949      1.00000
     22       8.7292      1.00000
     23       8.7923      1.00000
     24       8.9159      1.00000
     25       9.1199      1.00000
     26      13.4998      0.00000
     27      14.0530      0.00000
     28      16.2129      0.00000

 k-point    59 :       0.3077    0.3077    0.1538
  band No.  band energies     occupation 
      1     -44.8963      1.00000
      2     -44.8959      1.00000
      3     -44.8945      1.00000
      4       3.3744      1.00000
      5       5.2752      1.00000
      6       5.3152      1.00000
      7       5.5522      1.00000
      8       5.9225      1.00000
      9       5.9984      1.00000
     10       6.0583      1.00000
     11       6.6655      1.00000
     12       6.9233      1.00000
     13       6.9289      1.00000
     14       7.0967      1.00000
     15       7.1788      1.00000
     16       7.2774      1.00000
     17       7.7747      1.00000
     18       7.8170      1.00000
     19       7.8310      1.00000
     20       7.9839      1.00000
     21       8.4941      1.00000
     22       8.7740      1.00000
     23       8.8478      1.00000
     24       8.9029      1.00000
     25      11.0594     -0.00000
     26      11.1710     -0.00000
     27      13.9625      0.00000
     28      16.1718      0.00000

 k-point    60 :       0.3846    0.3077    0.1538
  band No.  band energies     occupation 
      1     -44.8967      1.00000
      2     -44.8960      1.00000
      3     -44.8945      1.00000
      4       3.8446      1.00000
      5       5.1156      1.00000
      6       5.4720      1.00000
      7       5.6549      1.00000
      8       6.0042      1.00000
      9       6.1326      1.00000
     10       6.2154      1.00000
     11       6.6243      1.00000
     12       6.7817      1.00000
     13       6.8317      1.00000
     14       6.9981      1.00000
     15       7.0799      1.00000
     16       7.3008      1.00000
     17       7.6524      1.00000
     18       7.6668      1.00000
     19       7.7221      1.00000
     20       8.0856      1.00000
     21       8.6811      1.00000
     22       8.7406      1.00000
     23       8.7533      1.00000
     24       8.8388      1.00000
     25      10.2065     -0.00000
     26      11.7082      0.00000
     27      13.6863      0.00000
     28      16.0720      0.00000

 k-point    61 :       0.4615    0.3077    0.1538
  band No.  band energies     occupation 
      1     -44.8971      1.00000
      2     -44.8960      1.00000
      3     -44.8945      1.00000
      4       4.3337      1.00000
      5       4.7823      1.00000
      6       5.5929      1.00000
      7       5.7191      1.00000
      8       6.0561      1.00000
      9       6.1429      1.00000
     10       6.3959      1.00000
     11       6.5389      1.00000
     12       6.7905      1.00000
     13       6.8348      1.00000
     14       6.9138      1.00000
     15       6.9494      1.00000
     16       7.3782      1.00000
     17       7.5035      1.00000
     18       7.6019      1.00000
     19       7.6346      1.00000
     20       8.2805      1.00000
     21       8.5086      1.00000
     22       8.6938      1.00000
     23       8.8009      1.00000
     24       9.0665      1.00000
     25       9.5297      0.97496
     26      12.3535      0.00000
     27      13.0445      0.00000
     28      16.5583      0.00000

 k-point    62 :       0.3846    0.3846    0.1538
  band No.  band energies     occupation 
      1     -44.8967      1.00000
      2     -44.8965      1.00000
      3     -44.8945      1.00000
      4       4.2405      1.00000
      5       5.2646      1.00000
      6       5.3010      1.00000
      7       5.6137      1.00000
      8       6.1470      1.00000
      9       6.3308      1.00000
     10       6.3486      1.00000
     11       6.6760      1.00000
     12       6.7603      1.00000
     13       6.7665      1.00000
     14       6.9861      1.00000
     15       7.0197      1.00000
     16       7.2658      1.00000
     17       7.5402      1.00000
     18       7.5567      1.00000
     19       7.5788      1.00000
     20       8.1227      1.00000
     21       8.5974      1.00000
     22       8.6349      1.00000
     23       8.7322      1.00000
     24       9.0600      1.00000
     25      10.6727     -0.00000
     26      10.8171     -0.00000
     27      12.8773      0.00000
     28      16.4835      0.00000

 k-point    63 :       0.4615    0.3846    0.1538
  band No.  band energies     occupation 
      1     -44.8969      1.00000
      2     -44.8965      1.00000
      3     -44.8945      1.00000
      4       4.6366      1.00000
      5       4.9994      1.00000
      6       5.4038      1.00000
      7       5.5570      1.00000
      8       6.2672      1.00000
      9       6.3572      1.00000
     10       6.5548      1.00000
     11       6.6785      1.00000
     12       6.7757      1.00000
     13       6.8294      1.00000
     14       6.8714      1.00000
     15       6.9738      1.00000
     16       7.3076      1.00000
     17       7.4183      1.00000
     18       7.4722      1.00000
     19       7.4941      1.00000
     20       8.2524      1.00000
     21       8.4435      1.00000
     22       8.5701      1.00000
     23       8.6646      1.00000
     24       9.4562      1.02847
     25       9.9958     -0.00000
     26      11.3629     -0.00000
     27      12.0724      0.00000
     28      17.1409      0.00000

 k-point    64 :       0.4615    0.4615    0.1538
  band No.  band energies     occupation 
      1     -44.8969      1.00000
      2     -44.8969      1.00000
      3     -44.8945      1.00000
      4       4.9218      1.00000
      5       5.1756      1.00000
      6       5.1983      1.00000
      7       5.4003      1.00000
      8       6.4491      1.00000
      9       6.5572      1.00000
     10       6.5904      1.00000
     11       6.7430      1.00000
     12       6.7994      1.00000
     13       6.8236      1.00000
     14       6.8669      1.00000
     15       6.9813      1.00000
     16       7.2869      1.00000
     17       7.3523      1.00000
     18       7.3662      1.00000
     19       7.3798      1.00000
     20       8.3013      1.00000
     21       8.4276      1.00000
     22       8.4367      1.00000
     23       8.5408      1.00000
     24       9.9316     -0.00002
     25      10.4742     -0.00000
     26      10.6370     -0.00000
     27      11.2423     -0.00000
     28      17.8595      0.00000

 k-point    65 :       0.2308    0.2308    0.2308
  band No.  band energies     occupation 
      1     -44.8957      1.00000
      2     -44.8951      1.00000
      3     -44.8951      1.00000
      4       2.8378      1.00000
      5       5.2255      1.00000
      6       5.2255      1.00000
      7       5.3337      1.00000
      8       5.8154      1.00000
      9       5.8154      1.00000
     10       5.8886      1.00000
     11       6.7584      1.00000
     12       7.2217      1.00000
     13       7.2217      1.00000
     14       7.2665      1.00000
     15       7.2821      1.00000
     16       7.2821      1.00000
     17       7.8864      1.00000
     18       7.9160      1.00000
     19       7.9160      1.00000
     20       8.0998      1.00000
     21       8.0998      1.00000
     22       8.8982      1.00000
     23       9.0100      1.00000
     24       9.0100      1.00000
     25      11.9929      0.00000
     26      11.9929      0.00000
     27      12.0624      0.00000
     28      18.4784      0.00000

 k-point    66 :       0.3077    0.2308    0.2308
  band No.  band energies     occupation 
      1     -44.8962      1.00000
      2     -44.8953      1.00000
      3     -44.8950      1.00000
      4       3.2444      1.00000
      5       5.1913      1.00000
      6       5.3571      1.00000
      7       5.4536      1.00000
      8       5.9219      1.00000
      9       5.9559      1.00000
     10       6.0263      1.00000
     11       6.7379      1.00000
     12       7.0750      1.00000
     13       7.0971      1.00000
     14       7.1136      1.00000
     15       7.1927      1.00000
     16       7.2331      1.00000
     17       7.7390      1.00000
     18       7.7664      1.00000
     19       7.7922      1.00000
     20       8.1295      1.00000
     21       8.2794      1.00000
     22       8.8664      1.00000
     23       8.9656      1.00000
     24       8.9849      1.00000
     25      10.9001     -0.00000
     26      12.4729      0.00000
     27      12.4918      0.00000
     28      17.3936      0.00000

 k-point    67 :       0.3846    0.2308    0.2308
  band No.  band energies     occupation 
      1     -44.8967      1.00000
      2     -44.8954      1.00000
      3     -44.8950      1.00000
      4       3.7184      1.00000
      5       5.0050      1.00000
      6       5.4837      1.00000
      7       5.5900      1.00000
      8       5.9960      1.00000
      9       6.0688      1.00000
     10       6.1992      1.00000
     11       6.6788      1.00000
     12       6.9383      1.00000
     13       6.9760      1.00000
     14       7.0123      1.00000
     15       7.1011      1.00000
     16       7.2631      1.00000
     17       7.5818      1.00000
     18       7.6633      1.00000
     19       7.6886      1.00000
     20       8.3027      1.00000
     21       8.4566      1.00000
     22       8.8156      1.00000
     23       8.8895      1.00000
     24       8.9425      1.00000
     25       9.9547     -0.00000
     26      12.9450      0.00000
     27      12.9548      0.00000
     28      16.5141      0.00000

 k-point    68 :       0.4615    0.2308    0.2308
  band No.  band energies     occupation 
      1     -44.8971      1.00000
      2     -44.8954      1.00000
      3     -44.8949      1.00000
      4       4.2127      1.00000
      5       4.6659      1.00000
      6       5.5728      1.00000
      7       5.6932      1.00000
      8       6.0104      1.00000
      9       6.0860      1.00000
     10       6.3990      1.00000
     11       6.5686      1.00000
     12       6.9025      1.00000
     13       6.9393      1.00000
     14       6.9868      1.00000
     15       6.9928      1.00000
     16       7.3325      1.00000
     17       7.4457      1.00000
     18       7.5930      1.00000
     19       7.6144      1.00000
     20       8.6176      1.00000
     21       8.6555      1.00000
     22       8.7544      1.00000
     23       8.8073      1.00000
     24       8.9121      1.00000
     25       9.2080      1.00000
     26      13.2723      0.00000
     27      13.3074      0.00000
     28      15.9649      0.00000

 k-point    69 :       0.3077    0.3077    0.2308
  band No.  band energies     occupation 
      1     -44.8962      1.00000
      2     -44.8958      1.00000
      3     -44.8951      1.00000
      4       3.5983      1.00000
      5       5.2523      1.00000
      6       5.3009      1.00000
      7       5.4709      1.00000
      8       6.0440      1.00000
      9       6.1064      1.00000
     10       6.1628      1.00000
     11       6.8037      1.00000
     12       6.9997      1.00000
     13       7.0256      1.00000
     14       7.1060      1.00000
     15       7.1657      1.00000
     16       7.1774      1.00000
     17       7.6081      1.00000
     18       7.6177      1.00000
     19       7.6331      1.00000
     20       8.1919      1.00000
     21       8.4243      1.00000
     22       8.8456      1.00000
     23       8.9436      1.00000
     24       8.9611      1.00000
     25      11.2729     -0.00000
     26      11.3482     -0.00000
     27      12.7483      0.00000
     28      16.4677      0.00000

 k-point    70 :       0.3846    0.3077    0.2308
  band No.  band energies     occupation 
      1     -44.8966      1.00000
      2     -44.8959      1.00000
      3     -44.8951      1.00000
      4       3.9996      1.00000
      5       5.0749      1.00000
      6       5.3449      1.00000
      7       5.4936      1.00000
      8       6.1459      1.00000
      9       6.2314      1.00000
     10       6.3505      1.00000
     11       6.8367      1.00000
     12       6.9608      1.00000
     13       7.0007      1.00000
     14       7.0661      1.00000
     15       7.1217      1.00000
     16       7.1887      1.00000
     17       7.4663      1.00000
     18       7.5079      1.00000
     19       7.5343      1.00000
     20       8.3101      1.00000
     21       8.6474      1.00000
     22       8.7935      1.00000
     23       8.8726      1.00000
     24       8.9138      1.00000
     25      10.3019     -0.00000
     26      11.7800      0.00000
     27      12.8640      0.00000
     28      15.8986      0.00000

 k-point    71 :       0.4615    0.3077    0.2308
  band No.  band energies     occupation 
      1     -44.8969      1.00000
      2     -44.8959      1.00000
      3     -44.8951      1.00000
      4       4.4062      1.00000
      5       4.7803      1.00000
      6       5.3799      1.00000
      7       5.5074      1.00000
      8       6.2024      1.00000
      9       6.2652      1.00000
     10       6.5798      1.00000
     11       6.7714      1.00000
     12       6.9463      1.00000
     13       6.9783      1.00000
     14       7.0540      1.00000
     15       7.1332      1.00000
     16       7.2411      1.00000
     17       7.3399      1.00000
     18       7.4459      1.00000
     19       7.4659      1.00000
     20       8.5302      1.00000
     21       8.7196      1.00000
     22       8.7790      1.00000
     23       8.8724      1.00000
     24       8.9656      1.00000
     25       9.5057      1.02361
     26      12.2645      0.00000
     27      12.6817      0.00000
     28      15.8642      0.00000

 k-point    72 :       0.3846    0.3846    0.2308
  band No.  band energies     occupation 
      1     -44.8966      1.00000
      2     -44.8964      1.00000
      3     -44.8951      1.00000
      4       4.3060      1.00000
      5       5.1145      1.00000
      6       5.1659      1.00000
      7       5.4009      1.00000
      8       6.2940      1.00000
      9       6.4494      1.00000
     10       6.4522      1.00000
     11       6.9869      1.00000
     12       7.0056      1.00000
     13       7.0296      1.00000
     14       7.0506      1.00000
     15       7.1339      1.00000
     16       7.2227      1.00000
     17       7.3795      1.00000
     18       7.3816      1.00000
     19       7.4057      1.00000
     20       8.3310      1.00000
     21       8.7315      1.00000
     22       8.7968      1.00000
     23       8.8513      1.00000
     24       8.9391      1.00000
     25      10.6930     -0.00000
     26      10.8046     -0.00000
     27      12.4594      0.00000
     28      15.8211      0.00000

 k-point    73 :       0.4615    0.3846    0.2308
  band No.  band energies     occupation 
      1     -44.8968      1.00000
      2     -44.8964      1.00000
      3     -44.8951      1.00000
      4       4.6071      1.00000
      5       4.8941      1.00000
      6       5.1903      1.00000
      7       5.3349      1.00000
      8       6.4006      1.00000
      9       6.4671      1.00000
     10       6.6805      1.00000
     11       6.8803      1.00000
     12       7.0427      1.00000
     13       7.0703      1.00000
     14       7.1590      1.00000
     15       7.1745      1.00000
     16       7.2611      1.00000
     17       7.2686      1.00000
     18       7.3183      1.00000
     19       7.3451      1.00000
     20       8.4632      1.00000
     21       8.6392      1.00000
     22       8.7049      1.00000
     23       8.7952      1.00000
     24       9.3310      1.00038
     25       9.9191     -0.00004
     26      11.2786     -0.00000
     27      11.8712      0.00000
     28      16.1912      0.00000

 k-point    74 :       0.4615    0.4615    0.2308
  band No.  band energies     occupation 
      1     -44.8967      1.00000
      2     -44.8967      1.00000
      3     -44.8951      1.00000
      4       4.8010      1.00000
      5       4.9844      1.00000
      6       5.0201      1.00000
      7       5.1965      1.00000
      8       6.5616      1.00000
      9       6.6489      1.00000
     10       6.6774      1.00000
     11       6.8135      1.00000
     12       7.1408      1.00000
     13       7.1662      1.00000
     14       7.1727      1.00000
     15       7.2225      1.00000
     16       7.2257      1.00000
     17       7.2699      1.00000
     18       7.2798      1.00000
     19       7.3474      1.00000
     20       8.4836      1.00000
     21       8.5884      1.00000
     22       8.6077      1.00000
     23       8.6995      1.00000
     24       9.7994     -0.00933
     25      10.3727     -0.00000
     26      10.5119     -0.00000
     27      11.0976     -0.00000
     28      16.7671      0.00000

 k-point    75 :       0.3077    0.3077    0.3077
  band No.  band energies     occupation 
      1     -44.8963      1.00000
      2     -44.8957      1.00000
      3     -44.8957      1.00000
      4       3.8787      1.00000
      5       5.2219      1.00000
      6       5.2219      1.00000
      7       5.3710      1.00000
      8       6.2302      1.00000
      9       6.2302      1.00000
     10       6.2920      1.00000
     11       6.9816      1.00000
     12       7.0870      1.00000
     13       7.1067      1.00000
     14       7.1067      1.00000
     15       7.1540      1.00000
     16       7.1540      1.00000
     17       7.4535      1.00000
     18       7.4665      1.00000
     19       7.4665      1.00000
     20       8.3925      1.00000
     21       8.3925      1.00000
     22       8.8628      1.00000
     23       8.9689      1.00000
     24       8.9689      1.00000
     25      11.5389     -0.00000
     26      11.5389     -0.00000
     27      11.5902     -0.00000
     28      16.9116      0.00000

 k-point    76 :       0.3846    0.3077    0.3077
  band No.  band energies     occupation 
      1     -44.8965      1.00000
      2     -44.8959      1.00000
      3     -44.8956      1.00000
      4       4.1866      1.00000
      5       5.0341      1.00000
      6       5.1947      1.00000
      7       5.3250      1.00000
      8       6.3306      1.00000
      9       6.3707      1.00000
     10       6.4797      1.00000
     11       7.0382      1.00000
     12       7.0986      1.00000
     13       7.1346      1.00000
     14       7.1539      1.00000
     15       7.2066      1.00000
     16       7.2558      1.00000
     17       7.3264      1.00000
     18       7.3584      1.00000
     19       7.3757      1.00000
     20       8.5109      1.00000
     21       8.5741      1.00000
     22       8.8324      1.00000
     23       8.9317      1.00000
     24       8.9427      1.00000
     25      10.4832     -0.00000
     26      11.7995      0.00000
     27      11.8037      0.00000
     28      16.1287      0.00000

 k-point    77 :       0.4615    0.3077    0.3077
  band No.  band energies     occupation 
      1     -44.8968      1.00000
      2     -44.8959      1.00000
      3     -44.8955      1.00000
      4       4.4927      1.00000
      5       4.7858      1.00000
      6       5.1791      1.00000
      7       5.3076      1.00000
      8       6.3826      1.00000
      9       6.4233      1.00000
     10       6.7076      1.00000
     11       6.9041      1.00000
     12       7.1287      1.00000
     13       7.1733      1.00000
     14       7.2029      1.00000
     15       7.2034      1.00000
     16       7.2824      1.00000
     17       7.2901      1.00000
     18       7.3327      1.00000
     19       7.3707      1.00000
     20       8.7220      1.00000
     21       8.7959      1.00000
     22       8.8566      1.00000
     23       8.8817      1.00000
     24       8.9304      1.00000
     25       9.5842      0.66680
     26      11.9502      0.00000
     27      11.9812      0.00000
     28      15.6901      0.00000

 k-point    78 :       0.3846    0.3846    0.3077
  band No.  band energies     occupation 
      1     -44.8965      1.00000
      2     -44.8962      1.00000
      3     -44.8957      1.00000
      4       4.3879      1.00000
      5       4.9863      1.00000
      6       5.0327      1.00000
      7       5.2025      1.00000
      8       6.4727      1.00000
      9       6.5622      1.00000
     10       6.5638      1.00000
     11       7.0145      1.00000
     12       7.0386      1.00000
     13       7.2045      1.00000
     14       7.2133      1.00000
     15       7.2350      1.00000
     16       7.3630      1.00000
     17       7.3943      1.00000
     18       7.4277      1.00000
     19       7.4532      1.00000
     20       8.5239      1.00000
     21       8.7871      1.00000
     22       8.8148      1.00000
     23       8.9058      1.00000
     24       8.9283      1.00000
     25      10.7220     -0.00000
     26      10.7867     -0.00000
     27      11.6946      0.00000
     28      15.6988      0.00000

 k-point    79 :       0.4615    0.3846    0.3077
  band No.  band energies     occupation 
      1     -44.8966      1.00000
      2     -44.8963      1.00000
      3     -44.8956      1.00000
      4       4.5910      1.00000
      5       4.8063      1.00000
      6       5.0013      1.00000
      7       5.1406      1.00000
      8       6.5563      1.00000
      9       6.5928      1.00000
     10       6.7580      1.00000
     11       6.9135      1.00000
     12       7.0521      1.00000
     13       7.1147      1.00000
     14       7.1617      1.00000
     15       7.1691      1.00000
     16       7.4855      1.00000
     17       7.5299      1.00000
     18       7.5521      1.00000
     19       7.5844      1.00000
     20       8.6622      1.00000
     21       8.7731      1.00000
     22       8.8288      1.00000
     23       8.8909      1.00000
     24       9.1652      1.00000
     25       9.8407     -0.00208
     26      11.0896     -0.00000
     27      11.4338     -0.00000
     28      15.6646      0.00000

 k-point    80 :       0.4615    0.4615    0.3077
  band No.  band energies     occupation 
      1     -44.8966      1.00000
      2     -44.8965      1.00000
      3     -44.8956      1.00000
      4       4.7022      1.00000
      5       4.8267      1.00000
      6       4.8622      1.00000
      7       5.0287      1.00000
      8       6.6850      1.00000
      9       6.7440      1.00000
     10       6.7641      1.00000
     11       6.8716      1.00000
     12       7.0226      1.00000
     13       7.0632      1.00000
     14       7.0735      1.00000
     15       7.0880      1.00000
     16       7.6947      1.00000
     17       7.7004      1.00000
     18       7.7233      1.00000
     19       7.7853      1.00000
     20       8.6461      1.00000
     21       8.7219      1.00000
     22       8.7565      1.00000
     23       8.8358      1.00000
     24       9.6029      0.51199
     25      10.2076     -0.00000
     26      10.3108     -0.00000
     27      10.8157     -0.00000
     28      15.9780      0.00000

 k-point    81 :       0.3846    0.3846    0.3846
  band No.  band energies     occupation 
      1     -44.8964      1.00000
      2     -44.8961      1.00000
      3     -44.8961      1.00000
      4       4.4857      1.00000
      5       4.8946      1.00000
      6       4.8946      1.00000
      7       5.0593      1.00000
      8       6.6524      1.00000
      9       6.6524      1.00000
     10       6.6576      1.00000
     11       6.9876      1.00000
     12       6.9876      1.00000
     13       7.1111      1.00000
     14       7.1111      1.00000
     15       7.1162      1.00000
     16       7.6539      1.00000
     17       7.6808      1.00000
     18       7.6808      1.00000
     19       7.9270      1.00000
     20       8.6878      1.00000
     21       8.6878      1.00000
     22       8.8381      1.00000
     23       8.9416      1.00000
     24       8.9416      1.00000
     25      10.7545     -0.00000
     26      10.7545     -0.00000
     27      10.7736     -0.00000
     28      15.9287      0.00000

 k-point    82 :       0.4615    0.3846    0.3846
  band No.  band energies     occupation 
      1     -44.8965      1.00000
      2     -44.8962      1.00000
      3     -44.8960      1.00000
      4       4.6002      1.00000
      5       4.7489      1.00000
      6       4.8470      1.00000
      7       4.9935      1.00000
      8       6.7046      1.00000
      9       6.7102      1.00000
     10       6.8089      1.00000
     11       6.9216      1.00000
     12       6.9820      1.00000
     13       7.0278      1.00000
     14       7.0514      1.00000
     15       7.0566      1.00000
     16       7.8648      1.00000
     17       7.8912      1.00000
     18       7.8981      1.00000
     19       8.0841      1.00000
     20       8.7986      1.00000
     21       8.8292      1.00000
     22       8.9018      1.00000
     23       8.9226      1.00000
     24       9.0452      1.00000
     25       9.8350     -0.00263
     26      10.7543     -0.00000
     27      10.7773     -0.00000
     28      15.5509      0.00000

 k-point    83 :       0.4615    0.4615    0.3846
  band No.  band energies     occupation 
      1     -44.8964      1.00000
      2     -44.8964      1.00000
      3     -44.8961      1.00000
      4       4.6411      1.00000
      5       4.7163      1.00000
      6       4.7392      1.00000
      7       4.9114      1.00000
      8       6.7939      1.00000
      9       6.8223      1.00000
     10       6.8346      1.00000
     11       6.9074      1.00000
     12       6.9435      1.00000
     13       6.9718      1.00000
     14       6.9799      1.00000
     15       6.9880      1.00000
     16       8.1398      1.00000
     17       8.1681      1.00000
     18       8.1870      1.00000
     19       8.3721      1.00000
     20       8.7714      1.00000
     21       8.8108      1.00000
     22       8.8660      1.00000
     23       8.9243      1.00000
     24       9.3419      1.00065
     25       9.9795     -0.00000
     26      10.0327     -0.00000
     27      10.3594     -0.00000
     28      15.5613      0.00000

 k-point    84 :       0.4615    0.4615    0.4615
  band No.  band energies     occupation 
      1     -44.8964      1.00000
      2     -44.8963      1.00000
      3     -44.8963      1.00000
      4       4.6250      1.00000
      5       4.6596      1.00000
      6       4.6596      1.00000
      7       4.8514      1.00000
      8       6.8617      1.00000
      9       6.8773      1.00000
     10       6.8773      1.00000
     11       6.9068      1.00000
     12       6.9068      1.00000
     13       6.9255      1.00000
     14       6.9255      1.00000
     15       6.9338      1.00000
     16       8.5530      1.00000
     17       8.5530      1.00000
     18       8.5612      1.00000
     19       8.8251      1.00000
     20       8.8696      1.00000
     21       8.8696      1.00000
     22       8.9333      1.00000
     23       8.9333      1.00000
     24       9.1725      1.00000
     25       9.7532     -0.02814
     26       9.7632     -0.02359
     27       9.7632     -0.02359
     28      15.4938      0.00000
 Fermi energy:         9.6043123528

 spin component 2

 k-point     1 :       0.0000    0.0000    0.0000
  band No.  band energies     occupation 
      1     -41.8592      1.00000
      2     -41.8592      1.00000
      3     -41.8592      1.00000
      4       1.0293      1.00000
      5       5.9172      1.00000
      6       5.9767      1.00000
      7       5.9767      1.00000
      8       6.6042      1.00000
      9       6.6042      1.00000
     10       6.6042      1.00000
     11       8.7658      1.00000
     12       8.7658      1.00000
     13       8.7658      1.00000
     14      10.1826     -0.00000
     15      10.1826     -0.00000
     16      10.8961     -0.00000
     17      10.8961     -0.00000
     18      10.8961     -0.00000
     19      10.9129     -0.00000
     20      11.4018     -0.00000
     21      11.4018     -0.00000
     22      11.5244     -0.00000
     23      11.5244     -0.00000
     24      11.5245     -0.00000
     25      12.1486      0.00000
     26      12.1486      0.00000
     27      12.1486      0.00000
     28      19.8984      0.00000

 k-point     2 :       0.0769    0.0000    0.0000
  band No.  band energies     occupation 
      1     -41.8595      1.00000
      2     -41.8592      1.00000
      3     -41.8592      1.00000
      4       1.1054      1.00000
      5       5.9333      1.00000
      6       5.9966      1.00000
      7       6.0244      1.00000
      8       6.6314      1.00000
      9       6.6314      1.00000
     10       6.6320      1.00000
     11       8.7310      1.00000
     12       8.7883      1.00000
     13       8.7883      1.00000
     14      10.1491     -0.00000
     15      10.1913     -0.00000
     16      10.6448     -0.00000
     17      10.6448     -0.00000
     18      10.8799     -0.00000
     19      10.8962     -0.00000
     20      11.2945     -0.00000
     21      11.2945     -0.00000
     22      11.3438     -0.00000
     23      11.3773     -0.00000
     24      11.5237     -0.00000
     25      11.8690      0.00000
     26      12.6409      0.00000
     27      12.6409      0.00000
     28      19.9148      0.00000

 k-point     3 :       0.1538    0.0000    0.0000
  band No.  band energies     occupation 
      1     -41.8603      1.00000
      2     -41.8592      1.00000
      3     -41.8592      1.00000
      4       1.3319      1.00000
      5       5.9037      1.00000
      6       6.1105      1.00000
      7       6.1623      1.00000
      8       6.7132      1.00000
      9       6.7132      1.00000
     10       6.7142      1.00000
     11       8.6295      1.00000
     12       8.8533      1.00000
     13       8.8533      1.00000
     14      10.0507     -0.00000
     15      10.0938     -0.00000
     16      10.0938     -0.00000
     17      10.2155     -0.00000
     18      10.7776     -0.00000
     19      10.8964     -0.00000
     20      11.0087     -0.00000
     21      11.0778     -0.00000
     22      11.0778     -0.00000
     23      11.3130     -0.00000
     24      11.3829     -0.00000
     25      11.5216     -0.00000
     26      13.4509      0.00000
     27      13.4509      0.00000
     28      19.9415      0.00000

 k-point     4 :       0.2308    0.0000    0.0000
  band No.  band energies     occupation 
      1     -41.8615      1.00000
      2     -41.8593      1.00000
      3     -41.8593      1.00000
      4       1.7027      1.00000
      5       5.7741      1.00000
      6       6.3003      1.00000
      7       6.3747      1.00000
      8       6.8472      1.00000
      9       6.8503      1.00000
     10       6.8503      1.00000
     11       8.4692      1.00000
     12       8.9448      1.00000
     13       8.9448      1.00000
     14       9.5302      0.97347
     15       9.5302      0.97347
     16       9.8915     -0.00019
     17      10.2471     -0.00000
     18      10.2856     -0.00000
     19      10.6076     -0.00000
     20      10.8470     -0.00000
     21      10.8470     -0.00000
     22      10.8968     -0.00000
     23      11.1462     -0.00000
     24      11.2306     -0.00000
     25      11.5188     -0.00000
     26      14.3521      0.00000
     27      14.3521      0.00000
     28      19.9756      0.00000

 k-point     5 :       0.3077    0.0000    0.0000
  band No.  band energies     occupation 
      1     -41.8628      1.00000
      2     -41.8594      1.00000
      3     -41.8594      1.00000
      4       2.2070      1.00000
      5       5.4706      1.00000
      6       6.5258      1.00000
      7       6.6308      1.00000
      8       7.0247      1.00000
      9       7.0435      1.00000
     10       7.0435      1.00000
     11       8.2627      1.00000
     12       8.8528      1.00000
     13       8.8528      1.00000
     14       9.2297      1.00000
     15       9.2297      1.00000
     16       9.6095      0.45578
     17       9.7587     -0.02565
     18      10.2386     -0.00000
     19      10.4292     -0.00000
     20      10.5869     -0.00000
     21      10.5869     -0.00000
     22      10.8971     -0.00000
     23      10.9284     -0.00000
     24      11.1491     -0.00000
     25      11.5161     -0.00000
     26      15.3152      0.00000
     27      15.3152      0.00000
     28      20.0257      0.00000

 k-point     6 :       0.3846    0.0000    0.0000
  band No.  band energies     occupation 
      1     -41.8638      1.00000
      2     -41.8594      1.00000
      3     -41.8594      1.00000
      4       2.8260      1.00000
      5       4.9497      1.00000
      6       6.7368      1.00000
      7       6.8777      1.00000
      8       7.2362      1.00000
      9       7.2927      1.00000
     10       7.2927      1.00000
     11       8.0271      1.00000
     12       8.4174      1.00000
     13       8.4174      1.00000
     14       9.2915      1.00004
     15       9.3561      1.00126
     16       9.3561      1.00126
     17       9.5339      0.96144
     18      10.0732     -0.00000
     19      10.3238     -0.00000
     20      10.3239     -0.00000
     21      10.4022     -0.00000
     22      10.7306     -0.00000
     23      10.8974     -0.00000
     24      11.0817     -0.00000
     25      11.5139     -0.00000
     26      16.3297      0.00000
     27      16.3297      0.00000
     28      19.6138      0.00000

 k-point     7 :       0.4615    0.0000    0.0000
  band No.  band energies     occupation 
      1     -41.8644      1.00000
      2     -41.8594      1.00000
      3     -41.8594      1.00000
      4       3.5272      1.00000
      5       4.2702      1.00000
      6       6.8688      1.00000
      7       7.0377      1.00000
      8       7.4557      1.00000
      9       7.5880      1.00000
     10       7.5880      1.00000
     11       7.7941      1.00000
     12       8.0088      1.00000
     13       8.0088      1.00000
     14       9.1911      1.00000
     15       9.3792      1.00328
     16       9.5090      1.01955
     17       9.5090      1.01955
     18       9.9253     -0.00003
     19      10.1179     -0.00000
     20      10.1179     -0.00000
     21      10.4216     -0.00000
     22      10.6079     -0.00000
     23      10.8975     -0.00000
     24      11.0419     -0.00000
     25      11.5128     -0.00000
     26      17.3885      0.00000
     27      17.3885      0.00000
     28      18.4869      0.00000

 k-point     8 :       0.0769    0.0769    0.0000
  band No.  band energies     occupation 
      1     -41.8596      1.00000
      2     -41.8594      1.00000
      3     -41.8592      1.00000
      4       1.1812      1.00000
      5       5.9658      1.00000
      6       6.0140      1.00000
      7       6.0587      1.00000
      8       6.6564      1.00000
      9       6.6574      1.00000
     10       6.6610      1.00000
     11       8.7055      1.00000
     12       8.8024      1.00000
     13       8.8086      1.00000
     14      10.1375     -0.00000
     15      10.1787     -0.00000
     16      10.4527     -0.00000
     17      10.4603     -0.00000
     18      10.8516     -0.00000
     19      10.8577     -0.00000
     20      10.9191     -0.00000
     21      11.2542     -0.00000
     22      11.3306     -0.00000
     23      11.3379     -0.00000
     24      11.4745     -0.00000
     25      12.2958      0.00000
     26      12.4623      0.00000
     27      12.9711      0.00000
     28      19.9257      0.00000

 k-point     9 :       0.1538    0.0769    0.0000
  band No.  band energies     occupation 
      1     -41.8603      1.00000
      2     -41.8595      1.00000
      3     -41.8593      1.00000
      4       1.4065      1.00000
      5       5.9516      1.00000
      6       6.1211      1.00000
      7       6.1907      1.00000
      8       6.7346      1.00000
      9       6.7354      1.00000
     10       6.7441      1.00000
     11       8.6111      1.00000
     12       8.8632      1.00000
     13       8.8667      1.00000
     14       9.9685     -0.00000
     15       9.9836     -0.00000
     16      10.0485     -0.00000
     17      10.1931     -0.00000
     18      10.4986     -0.00000
     19      10.7536     -0.00000
     20      10.8299     -0.00000
     21      11.1086     -0.00000
     22      11.2033     -0.00000
     23      11.2776     -0.00000
     24      11.4525     -0.00000
     25      11.8230      0.00000
     26      13.1718      0.00000
     27      13.6754      0.00000
     28      19.9370      0.00000

 k-point    10 :       0.2308    0.0769    0.0000
  band No.  band energies     occupation 
      1     -41.8615      1.00000
      2     -41.8596      1.00000
      3     -41.8593      1.00000
      4       1.7756      1.00000
      5       5.8254      1.00000
      6       6.3153      1.00000
      7       6.3997      1.00000
      8       6.8643      1.00000
      9       6.8655      1.00000
     10       6.8799      1.00000
     11       8.4559      1.00000
     12       8.9433      1.00000
     13       8.9540      1.00000
     14       9.4304      1.01689
     15       9.4679      1.03299
     16       9.8683     -0.00061
     17      10.0126     -0.00000
     18      10.2441     -0.00000
     19      10.5855     -0.00000
     20      10.7709     -0.00000
     21      10.9365     -0.00000
     22      10.9808     -0.00000
     23      11.1781     -0.00000
     24      11.3692     -0.00000
     25      11.4511     -0.00000
     26      14.0184      0.00000
     27      14.5268      0.00000
     28      19.9181      0.00000

 k-point    11 :       0.3077    0.0769    0.0000
  band No.  band energies     occupation 
      1     -41.8627      1.00000
      2     -41.8596      1.00000
      3     -41.8594      1.00000
      4       2.2773      1.00000
      5       5.5246      1.00000
      6       6.5461      1.00000
      7       6.6553      1.00000
      8       7.0397      1.00000
      9       7.0468      1.00000
     10       7.0686      1.00000
     11       8.2546      1.00000
     12       8.7971      1.00000
     13       8.8414      1.00000
     14       9.1696      1.00000
     15       9.2158      1.00000
     16       9.4764      1.03503
     17       9.7666     -0.02202
     18      10.2306     -0.00000
     19      10.3953     -0.00000
     20      10.5683     -0.00000
     21      10.7083     -0.00000
     22      10.8758     -0.00000
     23      10.9725     -0.00000
     24      11.1753     -0.00000
     25      11.4511     -0.00000
     26      14.9071      0.00000
     27      15.4622      0.00000
     28      19.5278      0.00000

 k-point    12 :       0.3846    0.0769    0.0000
  band No.  band energies     occupation 
      1     -41.8637      1.00000
      2     -41.8597      1.00000
      3     -41.8594      1.00000
      4       2.8931      1.00000
      5       5.0062      1.00000
      6       6.7630      1.00000
      7       6.9055      1.00000
      8       7.2488      1.00000
      9       7.2783      1.00000
     10       7.3118      1.00000
     11       8.0243      1.00000
     12       8.3593      1.00000
     13       8.4104      1.00000
     14       9.1681      1.00000
     15       9.2694      1.00001
     16       9.3561      1.00125
     17       9.6342      0.25889
     18      10.0716     -0.00000
     19      10.2648     -0.00000
     20      10.3140     -0.00000
     21      10.5301     -0.00000
     22      10.7572     -0.00000
     23      10.8644     -0.00000
     24      11.0902     -0.00000
     25      11.4507     -0.00000
     26      15.8229      0.00000
     27      16.4595      0.00000
     28      18.6409      0.00000

 k-point    13 :       0.4615    0.0769    0.0000
  band No.  band energies     occupation 
      1     -41.8643      1.00000
      2     -41.8597      1.00000
      3     -41.8595      1.00000
      4       3.5906      1.00000
      5       4.3299      1.00000
      6       6.8999      1.00000
      7       7.0685      1.00000
      8       7.4656      1.00000
      9       7.5566      1.00000
     10       7.5987      1.00000
     11       7.7974      1.00000
     12       7.9602      1.00000
     13       8.0116      1.00000
     14       9.1210      1.00000
     15       9.2191      1.00000
     16       9.5121      1.01510
     17       9.6595      0.10280
     18       9.9207     -0.00004
     19      10.0989     -0.00000
     20      10.1087     -0.00000
     21      10.5087     -0.00000
     22      10.6248     -0.00000
     23      10.8613     -0.00000
     24      11.0430     -0.00000
     25      11.4504     -0.00000
     26      16.7552      0.00000
     27      17.5071      0.00000
     28      17.6968      0.00000

 k-point    14 :       0.1538    0.1538    0.0000
  band No.  band energies     occupation 
      1     -41.8605      1.00000
      2     -41.8601      1.00000
      3     -41.8593      1.00000
      4       1.6286      1.00000
      5       6.0767      1.00000
      6       6.1102      1.00000
      7       6.3091      1.00000
      8       6.8019      1.00000
      9       6.8060      1.00000
     10       6.8257      1.00000
     11       8.5398      1.00000
     12       8.9033      1.00000
     13       8.9096      1.00000
     14       9.6168      0.39535
     15       9.6803      0.02108
     16       9.9400     -0.00001
     17      10.0151     -0.00000
     18      10.2385     -0.00000
     19      10.6674     -0.00000
     20      10.7423     -0.00000
     21      11.0907     -0.00000
     22      11.1530     -0.00000
     23      11.1777     -0.00000
     24      11.3337     -0.00000
     25      12.3951      0.00000
     26      12.6782      0.00000
     27      14.2402      0.00000
     28      19.8582      0.00000

 k-point    15 :       0.2308    0.1538    0.0000
  band No.  band energies     occupation 
      1     -41.8615      1.00000
      2     -41.8603      1.00000
      3     -41.8594      1.00000
      4       1.9922      1.00000
      5       5.9745      1.00000
      6       6.3078      1.00000
      7       6.5039      1.00000
      8       6.9109      1.00000
      9       6.9259      1.00000
     10       6.9574      1.00000
     11       8.4068      1.00000
     12       8.9322      1.00000
     13       8.9921      1.00000
     14       9.1676      1.00000
     15       9.2861      1.00003
     16       9.5290      0.97695
     17       9.9134     -0.00006
     18      10.2451     -0.00000
     19      10.5147     -0.00000
     20      10.6609     -0.00000
     21      10.9540     -0.00000
     22      10.9808     -0.00000
     23      11.0934     -0.00000
     24      11.2880     -0.00000
     25      11.8934      0.00000
     26      13.3001      0.00000
     27      14.9978      0.00000
     28      19.2469      0.00000

 k-point    16 :       0.3077    0.1538    0.0000
  band No.  band energies     occupation 
      1     -41.8627      1.00000
      2     -41.8603      1.00000
      3     -41.8594      1.00000
      4       2.4863      1.00000
      5       5.6819      1.00000
      6       6.5639      1.00000
      7       6.7471      1.00000
      8       7.0571      1.00000
      9       7.0897      1.00000
     10       7.1380      1.00000
     11       8.2250      1.00000
     12       8.6386      1.00000
     13       8.7944      1.00000
     14       9.0061      1.00000
     15       9.1933      1.00000
     16       9.2302      1.00000
     17       9.7880     -0.01304
     18      10.2349     -0.00000
     19      10.3324     -0.00000
     20      10.5110     -0.00000
     21      10.7802     -0.00000
     22      10.8285     -0.00000
     23      10.9706     -0.00000
     24      11.2814     -0.00000
     25      11.4511     -0.00000
     26      14.0581      0.00000
     27      15.8720      0.00000
     28      18.2692      0.00000

 k-point    17 :       0.3846    0.1538    0.0000
  band No.  band energies     occupation 
      1     -41.8636      1.00000
      2     -41.8603      1.00000
      3     -41.8595      1.00000
      4       3.0922      1.00000
      5       5.1713      1.00000
      6       6.8117      1.00000
      7       6.9929      1.00000
      8       7.2369      1.00000
      9       7.2872      1.00000
     10       7.3670      1.00000
     11       8.0128      1.00000
     12       8.2156      1.00000
     13       8.3874      1.00000
     14       8.9274      1.00000
     15       9.1405      1.00000
     16       9.3602      1.00150
     17       9.7225     -0.03516
     18      10.0718     -0.00000
     19      10.1975     -0.00000
     20      10.2832     -0.00000
     21      10.6697     -0.00000
     22      10.7802     -0.00000
     23      10.8171     -0.00000
     24      11.1983     -0.00000
     25      11.2806     -0.00000
     26      14.8346      0.00000
     27      16.8280      0.00000
     28      17.3272      0.00000

 k-point    18 :       0.4615    0.1538    0.0000
  band No.  band energies     occupation 
      1     -41.8642      1.00000
      2     -41.8603      1.00000
      3     -41.8595      1.00000
      4       3.7780      1.00000
      5       4.5054      1.00000
      6       6.9768      1.00000
      7       7.1432      1.00000
      8       7.4774      1.00000
      9       7.4944      1.00000
     10       7.6299      1.00000
     11       7.8058      1.00000
     12       7.8400      1.00000
     13       8.0186      1.00000
     14       8.9450      1.00000
     15       9.0455      1.00000
     16       9.5231      0.99310
     17       9.7825     -0.01512
     18       9.9176     -0.00004
     19      10.0367     -0.00000
     20      10.0812     -0.00000
     21      10.6428     -0.00000
     22      10.7323     -0.00000
     23      10.7654     -0.00000
     24      11.0790     -0.00000
     25      11.2805     -0.00000
     26      15.6286      0.00000
     27      16.4530      0.00000
     28      17.8472      0.00000

 k-point    19 :       0.2308    0.2308    0.0000
  band No.  band energies     occupation 
      1     -41.8617      1.00000
      2     -41.8611      1.00000
      3     -41.8594      1.00000
      4       2.3466      1.00000
      5       6.2014      1.00000
      6       6.2112      1.00000
      7       6.6836      1.00000
      8       6.9843      1.00000
      9       7.0311      1.00000
     10       7.0803      1.00000
     11       8.3088      1.00000
     12       8.8111      1.00000
     13       8.8739      1.00000
     14       9.0069      1.00000
     15       9.0788      1.00000
     16       9.2130      1.00000
     17       9.8469     -0.00160
     18      10.2697     -0.00000
     19      10.3850     -0.00000
     20      10.5519     -0.00000
     21      10.8996     -0.00000
     22      10.9086     -0.00000
     23      10.9825     -0.00000
     24      11.1257     -0.00000
     25      12.3412      0.00000
     26      12.7177      0.00000
     27      15.6716      0.00000
     28      18.1137      0.00000

 k-point    20 :       0.3077    0.2308    0.0000
  band No.  band energies     occupation 
      1     -41.8626      1.00000
      2     -41.8613      1.00000
      3     -41.8595      1.00000
      4       2.8273      1.00000
      5       5.9276      1.00000
      6       6.4911      1.00000
      7       6.9113      1.00000
      8       7.0759      1.00000
      9       7.1756      1.00000
     10       7.2468      1.00000
     11       8.1634      1.00000
     12       8.4418      1.00000
     13       8.6804      1.00000
     14       8.7232      1.00000
     15       9.0967      1.00000
     16       9.2106      1.00000
     17       9.7541     -0.02773
     18      10.2068     -0.00000
     19      10.2629     -0.00000
     20      10.4196     -0.00000
     21      10.7774     -0.00000
     22      10.7941     -0.00000
     23      10.8818     -0.00000
     24      11.0633     -0.00000
     25      11.8981      0.00000
     26      13.2062      0.00000
     27      16.4814      0.00000
     28      17.0512      0.00000

 k-point    21 :       0.3846    0.2308    0.0000
  band No.  band energies     occupation 
      1     -41.8635      1.00000
      2     -41.8613      1.00000
      3     -41.8595      1.00000
      4       3.4159      1.00000
      5       5.4313      1.00000
      6       6.7822      1.00000
      7       7.1418      1.00000
      8       7.1798      1.00000
      9       7.3512      1.00000
     10       7.4542      1.00000
     11       7.9851      1.00000
     12       8.0783      1.00000
     13       8.3420      1.00000
     14       8.6735      1.00000
     15       9.0225      1.00000
     16       9.3814      1.00356
     17       9.7081     -0.02859
     18      10.0287     -0.00000
     19      10.1264     -0.00000
     20      10.2275     -0.00000
     21      10.6793     -0.00000
     22      10.7200     -0.00000
     23      10.8618     -0.00000
     24      11.0484     -0.00000
     25      11.4981     -0.00000
     26      13.8559      0.00000
     27      16.1119      0.00000
     28      17.3890      0.00000

 k-point    22 :       0.4615    0.2308    0.0000
  band No.  band energies     occupation 
      1     -41.8640      1.00000
      2     -41.8613      1.00000
      3     -41.8596      1.00000
      4       4.0806      1.00000
      5       4.7855      1.00000
      6       7.0120      1.00000
      7       7.1609      1.00000
      8       7.4460      1.00000
      9       7.5386      1.00000
     10       7.6779      1.00000
     11       7.7468      1.00000
     12       7.8155      1.00000
     13       8.0262      1.00000
     14       8.7537      1.00000
     15       8.8960      1.00000
     16       9.5472      0.90667
     17       9.7632     -0.02358
     18       9.9040     -0.00009
     19       9.9436     -0.00001
     20      10.0354     -0.00000
     21      10.6408     -0.00000
     22      10.6413     -0.00000
     23      10.9757     -0.00000
     24      11.0440     -0.00000
     25      11.2362     -0.00000
     26      14.5433      0.00000
     27      15.2853      0.00000
     28      18.3718      0.00000

 k-point    23 :       0.3077    0.3077    0.0000
  band No.  band energies     occupation 
      1     -41.8627      1.00000
      2     -41.8622      1.00000
      3     -41.8595      1.00000
      4       3.2886      1.00000
      5       6.2181      1.00000
      6       6.2495      1.00000
      7       7.0674      1.00000
      8       7.1493      1.00000
      9       7.2940      1.00000
     10       7.3920      1.00000
     11       8.0644      1.00000
     12       8.2856      1.00000
     13       8.4625      1.00000
     14       8.4939      1.00000
     15       9.0196      1.00000
     16       9.2955      1.00006
     17       9.6751      0.03756
     18      10.0658     -0.00000
     19      10.1865     -0.00000
     20      10.3009     -0.00000
     21      10.7047     -0.00000
     22      10.7664     -0.00000
     23      10.8637     -0.00000
     24      10.8796     -0.00000
     25      12.2236      0.00000
     26      12.6838      0.00000
     27      15.9774      0.00000
     28      17.2353      0.00000

 k-point    24 :       0.3846    0.3077    0.0000
  band No.  band energies     occupation 
      1     -41.8633      1.00000
      2     -41.8623      1.00000
      3     -41.8596      1.00000
      4       3.8510      1.00000
      5       5.7608      1.00000
      6       6.5563      1.00000
      7       7.0750      1.00000
      8       7.3658      1.00000
      9       7.4376      1.00000
     10       7.5688      1.00000
     11       7.9343      1.00000
     12       8.0617      1.00000
     13       8.2650      1.00000
     14       8.4468      1.00000
     15       8.9219      1.00000
     16       9.4363      1.01944
     17       9.6221      0.35215
     18       9.9123     -0.00006
     19      10.0131     -0.00000
     20      10.1444     -0.00000
     21      10.5920     -0.00000
     22      10.6577     -0.00000
     23      10.8074     -0.00000
     24      11.0174     -0.00000
     25      11.8725      0.00000
     26      13.0604      0.00000
     27      15.0628      0.00000
     28      18.0971      0.00000

 k-point    25 :       0.4615    0.3077    0.0000
  band No.  band energies     occupation 
      1     -41.8638      1.00000
      2     -41.8622      1.00000
      3     -41.8596      1.00000
      4       4.4827      1.00000
      5       5.1499      1.00000
      6       6.8321      1.00000
      7       7.0077      1.00000
      8       7.5862      1.00000
      9       7.5928      1.00000
     10       7.7320      1.00000
     11       7.8239      1.00000
     12       7.8266      1.00000
     13       8.0273      1.00000
     14       8.5880      1.00000
     15       8.7686      1.00000
     16       9.5909      0.61226
     17       9.6536      0.13369
     18       9.8102     -0.00659
     19       9.8270     -0.00359
     20       9.9741     -0.00000
     21      10.5253     -0.00000
     22      10.5822     -0.00000
     23      10.7881     -0.00000
     24      11.2347     -0.00000
     25      11.5186     -0.00000
     26      13.6343      0.00000
     27      14.2926      0.00000
     28      19.0422      0.00000

 k-point    26 :       0.3846    0.3846    0.0000
  band No.  band energies     occupation 
      1     -41.8633      1.00000
      2     -41.8630      1.00000
      3     -41.8596      1.00000
      4       4.3765      1.00000
      5       6.0875      1.00000
      6       6.1590      1.00000
      7       6.9417      1.00000
      8       7.5403      1.00000
      9       7.5968      1.00000
     10       7.7045      1.00000
     11       7.8597      1.00000
     12       8.1233      1.00000
     13       8.1526      1.00000
     14       8.3174      1.00000
     15       8.8113      1.00000
     16       9.5344      0.95946
     17       9.5407      0.93539
     18       9.7736     -0.01886
     19       9.8387     -0.00226
     20      10.0335     -0.00000
     21      10.5163     -0.00000
     22      10.5670     -0.00000
     23      10.6250     -0.00000
     24      11.2465     -0.00000
     25      12.1173      0.00000
     26      12.6387      0.00000
     27      14.1975      0.00000
     28      18.9183      0.00000

 k-point    27 :       0.4615    0.3846    0.0000
  band No.  band energies     occupation 
      1     -41.8636      1.00000
      2     -41.8631      1.00000
      3     -41.8596      1.00000
      4       4.9598      1.00000
      5       5.5671      1.00000
      6       6.4673      1.00000
      7       6.7448      1.00000
      8       7.6499      1.00000
      9       7.7589      1.00000
     10       7.8082      1.00000
     11       7.8602      1.00000
     12       8.0128      1.00000
     13       8.0133      1.00000
     14       8.4524      1.00000
     15       8.6550      1.00000
     16       9.5356      0.95530
     17       9.6567      0.11683
     18       9.6661      0.07226
     19       9.6787      0.02578
     20       9.9068     -0.00008
     21      10.4423     -0.00000
     22      10.5022     -0.00000
     23      10.5599     -0.00000
     24      11.5225     -0.00000
     25      11.8453      0.00000
     26      12.9499      0.00000
     27      13.5035      0.00000
     28      19.8266      0.00000

 k-point    28 :       0.4615    0.4615    0.0000
  band No.  band energies     occupation 
      1     -41.8635      1.00000
      2     -41.8635      1.00000
      3     -41.8597      1.00000
      4       5.4762      1.00000
      5       5.9553      1.00000
      6       6.0429      1.00000
      7       6.4069      1.00000
      8       7.7022      1.00000
      9       7.7421      1.00000
     10       7.9205      1.00000
     11       7.9764      1.00000
     12       8.0286      1.00000
     13       8.1499      1.00000
     14       8.3676      1.00000
     15       8.5439      1.00000
     16       9.4792      1.03535
     17       9.5283      0.97926
     18       9.5734      0.74851
     19       9.7288     -0.03540
     20       9.8480     -0.00153
     21      10.3978     -0.00000
     22      10.4181     -0.00000
     23      10.4438     -0.00000
     24      11.8341      0.00000
     25      12.0583      0.00000
     26      12.6078      0.00000
     27      12.9160      0.00000
     28      20.6972      0.00000

 k-point    29 :       0.0769    0.0769    0.0769
  band No.  band energies     occupation 
      1     -41.8596      1.00000
      2     -41.8594      1.00000
      3     -41.8594      1.00000
      4       1.2566      1.00000
      5       6.0002      1.00000
      6       6.0616      1.00000
      7       6.0616      1.00000
      8       6.6794      1.00000
      9       6.6867      1.00000
     10       6.6867      1.00000
     11       8.6804      1.00000
     12       8.8219      1.00000
     13       8.8219      1.00000
     14      10.1460     -0.00000
     15      10.1460     -0.00000
     16      10.2963     -0.00000
     17      10.2963     -0.00000
     18      10.6700     -0.00000
     19      10.7438     -0.00000
     20      10.8971     -0.00000
     21      11.2650     -0.00000
     22      11.2650     -0.00000
     23      11.3641     -0.00000
     24      11.3641     -0.00000
     25      12.6598      0.00000
     26      12.6598      0.00000
     27      12.7949      0.00000
     28      20.3594      0.00000

 k-point    30 :       0.1538    0.0769    0.0769
  band No.  band energies     occupation 
      1     -41.8604      1.00000
      2     -41.8596      1.00000
      3     -41.8595      1.00000
      4       1.4808      1.00000
      5       5.9983      1.00000
      6       6.1520      1.00000
      7       6.1996      1.00000
      8       6.7533      1.00000
      9       6.7638      1.00000
     10       6.7686      1.00000
     11       8.5914      1.00000
     12       8.8753      1.00000
     13       8.8780      1.00000
     14       9.8606     -0.00087
     15       9.8684     -0.00060
     16      10.0484     -0.00000
     17      10.1765     -0.00000
     18      10.2864     -0.00000
     19      10.6457     -0.00000
     20      10.8624     -0.00000
     21      11.0631     -0.00000
     22      11.1738     -0.00000
     23      11.3070     -0.00000
     24      11.3840     -0.00000
     25      12.1152      0.00000
     26      13.3600      0.00000
     27      13.4018      0.00000
     28      20.4074      0.00000

 k-point    31 :       0.2308    0.0769    0.0769
  band No.  band energies     occupation 
      1     -41.8615      1.00000
      2     -41.8596      1.00000
      3     -41.8595      1.00000
      4       1.8479      1.00000
      5       5.8752      1.00000
      6       6.3417      1.00000
      7       6.4130      1.00000
      8       6.8768      1.00000
      9       6.8925      1.00000
     10       6.9005      1.00000
     11       8.4417      1.00000
     12       8.9506      1.00000
     13       8.9537      1.00000
     14       9.3714      1.00240
     15       9.3732      1.00258
     16       9.7802     -0.01607
     17       9.9597     -0.00000
     18      10.2060     -0.00000
     19      10.5075     -0.00000
     20      10.7618     -0.00000
     21      10.9034     -0.00000
     22      10.9989     -0.00000
     23      11.2417     -0.00000
     24      11.3705     -0.00000
     25      11.5575     -0.00000
     26      14.1688      0.00000
     27      14.1844      0.00000
     28      20.3389      0.00000

 k-point    32 :       0.3077    0.0769    0.0769
  band No.  band energies     occupation 
      1     -41.8627      1.00000
      2     -41.8597      1.00000
      3     -41.8596      1.00000
      4       2.3469      1.00000
      5       5.5767      1.00000
      6       6.5715      1.00000
      7       6.6734      1.00000
      8       7.0459      1.00000
      9       7.0717      1.00000
     10       7.0779      1.00000
     11       8.2460      1.00000
     12       8.7694      1.00000
     13       8.8031      1.00000
     14       9.1309      1.00000
     15       9.1876      1.00000
     16       9.3840      1.00393
     17       9.7928     -0.01139
     18      10.1916     -0.00000
     19      10.3176     -0.00000
     20      10.5963     -0.00000
     21      10.7586     -0.00000
     22      10.8551     -0.00000
     23      11.0839     -0.00000
     24      11.1644     -0.00000
     25      11.4068     -0.00000
     26      15.0330      0.00000
     27      15.0346      0.00000
     28      19.7282      0.00000

 k-point    33 :       0.3846    0.0769    0.0769
  band No.  band energies     occupation 
      1     -41.8637      1.00000
      2     -41.8597      1.00000
      3     -41.8596      1.00000
      4       2.9593      1.00000
      5       5.0607      1.00000
      6       6.7915      1.00000
      7       6.9307      1.00000
      8       7.2514      1.00000
      9       7.2941      1.00000
     10       7.3001      1.00000
     11       8.0215      1.00000
     12       8.3362      1.00000
     13       8.3842      1.00000
     14       9.0885      1.00000
     15       9.2305      1.00000
     16       9.3220      1.00024
     17       9.7075     -0.02815
     18      10.0472     -0.00000
     19      10.1286     -0.00000
     20      10.4866     -0.00000
     21      10.5285     -0.00000
     22      10.7952     -0.00000
     23      10.8417     -0.00000
     24      11.0898     -0.00000
     25      11.4003     -0.00000
     26      15.9183      0.00000
     27      15.9261      0.00000
     28      18.7955      0.00000

 k-point    34 :       0.4615    0.0769    0.0769
  band No.  band energies     occupation 
      1     -41.8643      1.00000
      2     -41.8598      1.00000
      3     -41.8596      1.00000
      4       3.6527      1.00000
      5       4.3879      1.00000
      6       6.9327      1.00000
      7       7.1014      1.00000
      8       7.4691      1.00000
      9       7.5190      1.00000
     10       7.5841      1.00000
     11       7.8025      1.00000
     12       7.9322      1.00000
     13       8.0326      1.00000
     14       9.0647      1.00000
     15       9.1557      1.00000
     16       9.4695      1.03348
     17       9.7614     -0.02442
     18       9.8884     -0.00022
     19       9.9778     -0.00000
     20      10.2623     -0.00000
     21      10.5349     -0.00000
     22      10.6404     -0.00000
     23      10.8387     -0.00000
     24      11.0401     -0.00000
     25      11.3986     -0.00000
     26      16.7838      0.00000
     27      16.8027      0.00000
     28      17.8940      0.00000

 k-point    35 :       0.1538    0.1538    0.0769
  band No.  band energies     occupation 
      1     -41.8606      1.00000
      2     -41.8601      1.00000
      3     -41.8595      1.00000
      4       1.7015      1.00000
      5       6.1186      1.00000
      6       6.1563      1.00000
      7       6.3062      1.00000
      8       6.8179      1.00000
      9       6.8345      1.00000
     10       6.8469      1.00000
     11       8.5207      1.00000
     12       8.9127      1.00000
     13       8.9189      1.00000
     14       9.5358      0.95448
     15       9.5738      0.74561
     16       9.8729     -0.00049
     17      10.0285     -0.00000
     18      10.1714     -0.00000
     19      10.5092     -0.00000
     20      10.8389     -0.00000
     21      10.9736     -0.00000
     22      11.0659     -0.00000
     23      11.2654     -0.00000
     24      11.3378     -0.00000
     25      12.6091      0.00000
     26      12.8230      0.00000
     27      13.9062      0.00000
     28      20.2787      0.00000

 k-point    36 :       0.2308    0.1538    0.0769
  band No.  band energies     occupation 
      1     -41.8615      1.00000
      2     -41.8603      1.00000
      3     -41.8596      1.00000
      4       2.0629      1.00000
      5       6.0196      1.00000
      6       6.3465      1.00000
      7       6.5029      1.00000
      8       6.9245      1.00000
      9       6.9503      1.00000
     10       6.9745      1.00000
     11       8.3920      1.00000
     12       8.9354      1.00000
     13       8.9873      1.00000
     14       9.1223      1.00000
     15       9.2050      1.00000
     16       9.4788      1.03533
     17       9.9311     -0.00002
     18      10.1846     -0.00000
     19      10.3702     -0.00000
     20      10.7322     -0.00000
     21      10.8464     -0.00000
     22      10.9416     -0.00000
     23      11.1916     -0.00000
     24      11.3005     -0.00000
     25      12.0191      0.00000
     26      13.4219      0.00000
     27      14.5992      0.00000
     28      19.4497      0.00000

 k-point    37 :       0.3077    0.1538    0.0769
  band No.  band energies     occupation 
      1     -41.8626      1.00000
      2     -41.8603      1.00000
      3     -41.8596      1.00000
      4       2.5537      1.00000
      5       5.7278      1.00000
      6       6.5966      1.00000
      7       6.7503      1.00000
      8       7.0648      1.00000
      9       7.1089      1.00000
     10       7.1457      1.00000
     11       8.2162      1.00000
     12       8.6258      1.00000
     13       8.7477      1.00000
     14       8.9855      1.00000
     15       9.1638      1.00000
     16       9.2060      1.00000
     17       9.8218     -0.00436
     18      10.1514     -0.00000
     19      10.2047     -0.00000
     20      10.5833     -0.00000
     21      10.7478     -0.00000
     22      10.8161     -0.00000
     23      11.0796     -0.00000
     24      11.2699     -0.00000
     25      11.4907     -0.00000
     26      14.1501      0.00000
     27      15.3753      0.00000
     28      18.4508      0.00000

 k-point    38 :       0.3846    0.1538    0.0769
  band No.  band energies     occupation 
      1     -41.8636      1.00000
      2     -41.8603      1.00000
      3     -41.8597      1.00000
      4       3.1554      1.00000
      5       5.2195      1.00000
      6       6.8430      1.00000
      7       7.0087      1.00000
      8       7.2233      1.00000
      9       7.3002      1.00000
     10       7.3498      1.00000
     11       8.0113      1.00000
     12       8.2256      1.00000
     13       8.3713      1.00000
     14       8.8993      1.00000
     15       9.1271      1.00000
     16       9.3073      1.00011
     17       9.7857     -0.01389
     18      10.0014     -0.00000
     19      10.0301     -0.00000
     20      10.4605     -0.00000
     21      10.6430     -0.00000
     22      10.7875     -0.00000
     23      10.8812     -0.00000
     24      11.1743     -0.00000
     25      11.2743     -0.00000
     26      14.8989      0.00000
     27      16.1452      0.00000
     28      17.5871      0.00000

 k-point    39 :       0.4615    0.1538    0.0769
  band No.  band energies     occupation 
      1     -41.8641      1.00000
      2     -41.8604      1.00000
      3     -41.8597      1.00000
      4       3.8362      1.00000
      5       4.5582      1.00000
      6       7.0139      1.00000
      7       7.1800      1.00000
      8       7.3965      1.00000
      9       7.5046      1.00000
     10       7.5456      1.00000
     11       7.8137      1.00000
     12       7.8950      1.00000
     13       8.0701      1.00000
     14       8.9219      1.00000
     15       9.0270      1.00000
     16       9.4505      1.02594
     17       9.7989     -0.00948
     18       9.8824     -0.00030
     19       9.9083     -0.00007
     20      10.2998     -0.00000
     21      10.6432     -0.00000
     22      10.7043     -0.00000
     23      10.7955     -0.00000
     24      11.0640     -0.00000
     25      11.2613     -0.00000
     26      15.6518      0.00000
     27      16.3257      0.00000
     28      17.4262      0.00000

 k-point    40 :       0.2308    0.2308    0.0769
  band No.  band energies     occupation 
      1     -41.8617      1.00000
      2     -41.8611      1.00000
      3     -41.8596      1.00000
      4       2.4144      1.00000
      5       6.2369      1.00000
      6       6.2493      1.00000
      7       6.6787      1.00000
      8       6.9983      1.00000
      9       7.0510      1.00000
     10       7.0950      1.00000
     11       8.2965      1.00000
     12       8.7833      1.00000
     13       8.8446      1.00000
     14       8.9848      1.00000
     15       9.0690      1.00000
     16       9.1946      1.00000
     17       9.8681     -0.00061
     18      10.1921     -0.00000
     19      10.2211     -0.00000
     20      10.6548     -0.00000
     21      10.7493     -0.00000
     22      10.8598     -0.00000
     23      11.0932     -0.00000
     24      11.2200     -0.00000
     25      12.4478      0.00000
     26      12.7783      0.00000
     27      15.1845      0.00000
     28      18.3037      0.00000

 k-point    41 :       0.3077    0.2308    0.0769
  band No.  band energies     occupation 
      1     -41.8626      1.00000
      2     -41.8613      1.00000
      3     -41.8597      1.00000
      4       2.8910      1.00000
      5       5.9620      1.00000
      6       6.5159      1.00000
      7       6.8996      1.00000
      8       7.0887      1.00000
      9       7.1920      1.00000
     10       7.2553      1.00000
     11       8.1575      1.00000
     12       8.4438      1.00000
     13       8.6170      1.00000
     14       8.7650      1.00000
     15       9.0903      1.00000
     16       9.1784      1.00000
     17       9.7875     -0.01324
     18      10.0625     -0.00000
     19      10.1416     -0.00000
     20      10.5161     -0.00000
     21      10.7222     -0.00000
     22      10.7610     -0.00000
     23      10.9814     -0.00000
     24      11.1463     -0.00000
     25      11.9341      0.00000
     26      13.2590      0.00000
     27      15.8007      0.00000
     28      17.3481      0.00000

 k-point    42 :       0.3846    0.2308    0.0769
  band No.  band energies     occupation 
      1     -41.8634      1.00000
      2     -41.8613      1.00000
      3     -41.8597      1.00000
      4       3.4740      1.00000
      5       5.4681      1.00000
      6       6.7951      1.00000
      7       7.1299      1.00000
      8       7.1735      1.00000
      9       7.3600      1.00000
     10       7.4405      1.00000
     11       7.9898      1.00000
     12       8.1195      1.00000
     13       8.3486      1.00000
     14       8.6823      1.00000
     15       9.0210      1.00000
     16       9.3137      1.00016
     17       9.7573     -0.02630
     18       9.9039     -0.00010
     19       9.9908     -0.00000
     20      10.3722     -0.00000
     21      10.6702     -0.00000
     22      10.7657     -0.00000
     23      10.8755     -0.00000
     24      11.0973     -0.00000
     25      11.4907     -0.00000
     26      13.8899      0.00000
     27      15.8879      0.00000
     28      17.1257      0.00000

 k-point    43 :       0.4615    0.2308    0.0769
  band No.  band energies     occupation 
      1     -41.8640      1.00000
      2     -41.8613      1.00000
      3     -41.8597      1.00000
      4       4.1318      1.00000
      5       4.8290      1.00000
      6       7.0244      1.00000
      7       7.1577      1.00000
      8       7.3803      1.00000
      9       7.5014      1.00000
     10       7.5873      1.00000
     11       7.8229      1.00000
     12       7.9085      1.00000
     13       8.1030      1.00000
     14       8.7564      1.00000
     15       8.8956      1.00000
     16       9.4536      1.02732
     17       9.7049     -0.02569
     18       9.8121     -0.00617
     19       9.9076     -0.00008
     20      10.2338     -0.00000
     21      10.6353     -0.00000
     22      10.6869     -0.00000
     23      10.9610     -0.00000
     24      11.0755     -0.00000
     25      11.2169     -0.00000
     26      14.5522      0.00000
     27      15.2469      0.00000
     28      17.7975      0.00000

 k-point    44 :       0.3077    0.3077    0.0769
  band No.  band energies     occupation 
      1     -41.8626      1.00000
      2     -41.8621      1.00000
      3     -41.8597      1.00000
      4       3.3467      1.00000
      5       6.2357      1.00000
      6       6.2642      1.00000
      7       7.0213      1.00000
      8       7.1806      1.00000
      9       7.3136      1.00000
     10       7.4010      1.00000
     11       8.0676      1.00000
     12       8.3050      1.00000
     13       8.4150      1.00000
     14       8.5699      1.00000
     15       9.0209      1.00000
     16       9.2396      1.00000
     17       9.7174     -0.03391
     18       9.9131     -0.00006
     19      10.0626     -0.00000
     20      10.3887     -0.00000
     21      10.6761     -0.00000
     22      10.7760     -0.00000
     23      10.8912     -0.00000
     24      11.0252     -0.00000
     25      12.2554      0.00000
     26      12.6913      0.00000
     27      15.7238      0.00000
     28      17.0202      0.00000

 k-point    45 :       0.3846    0.3077    0.0769
  band No.  band energies     occupation 
      1     -41.8633      1.00000
      2     -41.8622      1.00000
      3     -41.8598      1.00000
      4       3.9014      1.00000
      5       5.7797      1.00000
      6       6.5477      1.00000
      7       7.0298      1.00000
      8       7.3692      1.00000
      9       7.4610      1.00000
     10       7.5679      1.00000
     11       7.9524      1.00000
     12       8.1127      1.00000
     13       8.2919      1.00000
     14       8.4888      1.00000
     15       8.9284      1.00000
     16       9.3355      1.00048
     17       9.6825      0.01485
     18       9.7685     -0.02115
     19       9.9058     -0.00009
     20      10.2540     -0.00000
     21      10.5932     -0.00000
     22      10.7098     -0.00000
     23      10.9313     -0.00000
     24      10.9977     -0.00000
     25      11.8658      0.00000
     26      13.0637      0.00000
     27      14.9901      0.00000
     28      17.5956      0.00000

 k-point    46 :       0.4615    0.3077    0.0769
  band No.  band energies     occupation 
      1     -41.8637      1.00000
      2     -41.8622      1.00000
      3     -41.8598      1.00000
      4       4.5233      1.00000
      5       5.1790      1.00000
      6       6.7989      1.00000
      7       6.9618      1.00000
      8       7.5367      1.00000
      9       7.6093      1.00000
     10       7.6893      1.00000
     11       7.8362      1.00000
     12       7.9757      1.00000
     13       8.1222      1.00000
     14       8.6074      1.00000
     15       8.7799      1.00000
     16       9.4548      1.02787
     17       9.6102      0.45025
     18       9.6905     -0.00413
     19       9.8180     -0.00501
     20      10.1397     -0.00000
     21      10.5566     -0.00000
     22      10.6041     -0.00000
     23      10.8854     -0.00000
     24      11.2120     -0.00000
     25      11.4970     -0.00000
     26      13.6259      0.00000
     27      14.2640      0.00000
     28      18.3700      0.00000

 k-point    47 :       0.3846    0.3846    0.0769
  band No.  band energies     occupation 
      1     -41.8632      1.00000
      2     -41.8630      1.00000
      3     -41.8598      1.00000
      4       4.4162      1.00000
      5       6.0840      1.00000
      6       6.1506      1.00000
      7       6.8853      1.00000
      8       7.5599      1.00000
      9       7.6055      1.00000
     10       7.7118      1.00000
     11       7.8966      1.00000
     12       8.1765      1.00000
     13       8.2017      1.00000
     14       8.3763      1.00000
     15       8.8245      1.00000
     16       9.3642      1.00178
     17       9.6290      0.29835
     18       9.6524      0.14059
     19       9.7470     -0.03074
     20      10.1377     -0.00000
     21      10.5112     -0.00000
     22      10.6127     -0.00000
     23      10.7881     -0.00000
     24      11.2225     -0.00000
     25      12.1071      0.00000
     26      12.6180      0.00000
     27      14.1556      0.00000
     28      18.2792      0.00000

 k-point    48 :       0.4615    0.3846    0.0769
  band No.  band energies     occupation 
      1     -41.8636      1.00000
      2     -41.8630      1.00000
      3     -41.8598      1.00000
      4       4.9855      1.00000
      5       5.5762      1.00000
      6       6.4339      1.00000
      7       6.6914      1.00000
      8       7.6780      1.00000
      9       7.7546      1.00000
     10       7.8100      1.00000
     11       7.8701      1.00000
     12       8.0969      1.00000
     13       8.1317      1.00000
     14       8.4833      1.00000
     15       8.6754      1.00000
     16       9.4168      1.01173
     17       9.5358      0.95453
     18       9.5706      0.76799
     19       9.6894     -0.00188
     20      10.0504     -0.00000
     21      10.4752     -0.00000
     22      10.5237     -0.00000
     23      10.7070     -0.00000
     24      11.4962     -0.00000
     25      11.8213      0.00000
     26      12.9261      0.00000
     27      13.4725      0.00000
     28      19.0529      0.00000

 k-point    49 :       0.4615    0.4615    0.0769
  band No.  band energies     occupation 
      1     -41.8635      1.00000
      2     -41.8635      1.00000
      3     -41.8598      1.00000
      4       5.4828      1.00000
      5       5.9429      1.00000
      6       6.0247      1.00000
      7       6.3673      1.00000
      8       7.7452      1.00000
      9       7.7906      1.00000
     10       7.9285      1.00000
     11       7.9402      1.00000
     12       8.1549      1.00000
     13       8.2176      1.00000
     14       8.4064      1.00000
     15       8.5720      1.00000
     16       9.3898      1.00486
     17       9.4481      1.02480
     18       9.4618      1.03082
     19       9.6603      0.09863
     20       9.9917     -0.00000
     21      10.4432     -0.00000
     22      10.4708     -0.00000
     23      10.5766     -0.00000
     24      11.8056      0.00000
     25      12.0318      0.00000
     26      12.5764      0.00000
     27      12.8824      0.00000
     28      19.8158      0.00000

 k-point    50 :       0.1538    0.1538    0.1538
  band No.  band energies     occupation 
      1     -41.8607      1.00000
      2     -41.8601      1.00000
      3     -41.8601      1.00000
      4       1.9183      1.00000
      5       6.2274      1.00000
      6       6.2898      1.00000
      7       6.2898      1.00000
      8       6.8747      1.00000
      9       6.9106      1.00000
     10       6.9106      1.00000
     11       8.4573      1.00000
     12       8.9442      1.00000
     13       8.9442      1.00000
     14       9.3044      1.00009
     15       9.3044      1.00009
     16       9.6385      0.22873
     17      10.0609     -0.00000
     18      10.0609     -0.00000
     19      10.3266     -0.00000
     20      10.8701     -0.00000
     21      10.8701     -0.00000
     22      10.8783     -0.00000
     23      11.3177     -0.00000
     24      11.3177     -0.00000
     25      13.1055      0.00000
     26      13.1055      0.00000
     27      13.2801      0.00000
     28      20.8900      0.00000

 k-point    51 :       0.2308    0.1538    0.1538
  band No.  band energies     occupation 
      1     -41.8615      1.00000
      2     -41.8604      1.00000
      3     -41.8601      1.00000
      4       2.2728      1.00000
      5       6.1488      1.00000
      6       6.4382      1.00000
      7       6.4958      1.00000
      8       6.9703      1.00000
      9       7.0162      1.00000
     10       7.0318      1.00000
     11       8.3442      1.00000
     12       8.8934      1.00000
     13       8.9573      1.00000
     14       8.9961      1.00000
     15       9.0717      1.00000
     16       9.3186      1.00020
     17       9.9556     -0.00000
     18      10.0770     -0.00000
     19      10.1729     -0.00000
     20      10.6975     -0.00000
     21      10.7707     -0.00000
     22      10.8517     -0.00000
     23      11.2735     -0.00000
     24      11.2941     -0.00000
     25      12.3648      0.00000
     26      13.7236      0.00000
     27      13.7813      0.00000
     28      19.7946      0.00000

 k-point    52 :       0.3077    0.1538    0.1538
  band No.  band energies     occupation 
      1     -41.8626      1.00000
      2     -41.8605      1.00000
      3     -41.8601      1.00000
      4       2.7538      1.00000
      5       5.8592      1.00000
      6       6.6651      1.00000
      7       6.7488      1.00000
      8       7.0932      1.00000
      9       7.1569      1.00000
     10       7.1911      1.00000
     11       8.1889      1.00000
     12       8.5599      1.00000
     13       8.6453      1.00000
     14       8.9178      1.00000
     15       9.1225      1.00000
     16       9.1379      1.00000
     17       9.8744     -0.00045
     18       9.9867     -0.00000
     19      10.0487     -0.00000
     20      10.6100     -0.00000
     21      10.6521     -0.00000
     22      10.8073     -0.00000
     23      11.2067     -0.00000
     24      11.2377     -0.00000
     25      11.6915      0.00000
     26      14.3902      0.00000
     27      14.4010      0.00000
     28      18.8256      0.00000

 k-point    53 :       0.3846    0.1538    0.1538
  band No.  band energies     occupation 
      1     -41.8635      1.00000
      2     -41.8605      1.00000
      3     -41.8601      1.00000
      4       3.3426      1.00000
      5       5.3586      1.00000
      6       6.9016      1.00000
      7       7.0162      1.00000
      8       7.2080      1.00000
      9       7.3035      1.00000
     10       7.3753      1.00000
     11       8.0086      1.00000
     12       8.2225      1.00000
     13       8.3610      1.00000
     14       8.8166      1.00000
     15       9.0829      1.00000
     16       9.2342      1.00000
     17       9.8176     -0.00508
     18       9.8764     -0.00041
     19       9.9093     -0.00007
     20      10.5357     -0.00000
     21      10.6094     -0.00000
     22      10.7947     -0.00000
     23      11.0834     -0.00000
     24      11.1219     -0.00000
     25      11.2709     -0.00000
     26      15.0299      0.00000
     27      15.0550      0.00000
     28      17.9032      0.00000

 k-point    54 :       0.4615    0.1538    0.1538
  band No.  band energies     occupation 
      1     -41.8640      1.00000
      2     -41.8605      1.00000
      3     -41.8601      1.00000
      4       4.0074      1.00000
      5       4.7123      1.00000
      6       7.1022      1.00000
      7       7.2433      1.00000
      8       7.2545      1.00000
      9       7.3741      1.00000
     10       7.5574      1.00000
     11       7.8367      1.00000
     12       7.9820      1.00000
     13       8.1673      1.00000
     14       8.8550      1.00000
     15       8.9719      1.00000
     16       9.3604      1.00151
     17       9.6510      0.14882
     18       9.8013     -0.00881
     19       9.9455     -0.00001
     20      10.4959     -0.00000
     21      10.6200     -0.00000
     22      10.7568     -0.00000
     23      10.8296     -0.00000
     24      11.0421     -0.00000
     25      11.2137     -0.00000
     26      15.5389      0.00000
     27      15.6004      0.00000
     28      17.2524      0.00000

 k-point    55 :       0.2308    0.2308    0.1538
  band No.  band energies     occupation 
      1     -41.8617      1.00000
      2     -41.8611      1.00000
      3     -41.8603      1.00000
      4       2.6156      1.00000
      5       6.3347      1.00000
      6       6.3553      1.00000
      7       6.6362      1.00000
      8       7.0474      1.00000
      9       7.1150      1.00000
     10       7.1425      1.00000
     11       8.2597      1.00000
     12       8.6997      1.00000
     13       8.7226      1.00000
     14       8.9882      1.00000
     15       9.0499      1.00000
     16       9.1200      1.00000
     17       9.9029     -0.00010
     18       9.9955     -0.00000
     19      10.0277     -0.00000
     20      10.6226     -0.00000
     21      10.6459     -0.00000
     22      10.8332     -0.00000
     23      11.2339     -0.00000
     24      11.2818     -0.00000
     25      12.7404      0.00000
     26      12.9626      0.00000
     27      14.2125      0.00000
     28      18.6751      0.00000

 k-point    56 :       0.3077    0.2308    0.1538
  band No.  band energies     occupation 
      1     -41.8625      1.00000
      2     -41.8613      1.00000
      3     -41.8603      1.00000
      4       3.0795      1.00000
      5       6.0566      1.00000
      6       6.5750      1.00000
      7       6.8230      1.00000
      8       7.1492      1.00000
      9       7.2491      1.00000
     10       7.2948      1.00000
     11       8.1425      1.00000
     12       8.4392      1.00000
     13       8.5293      1.00000
     14       8.8023      1.00000
     15       9.0714      1.00000
     16       9.1133      1.00000
     17       9.8225     -0.00426
     18       9.8437     -0.00184
     19       9.9454     -0.00001
     20      10.5194     -0.00000
     21      10.6511     -0.00000
     22      10.7845     -0.00000
     23      11.1509     -0.00000
     24      11.2306     -0.00000
     25      12.0661      0.00000
     26      13.4079      0.00000
     27      14.7032      0.00000
     28      17.7158      0.00000

 k-point    57 :       0.3846    0.2308    0.1538
  band No.  band energies     occupation 
      1     -41.8633      1.00000
      2     -41.8613      1.00000
      3     -41.8603      1.00000
      4       3.6454      1.00000
      5       5.5714      1.00000
      6       6.7989      1.00000
      7       6.9862      1.00000
      8       7.2551      1.00000
      9       7.3972      1.00000
     10       7.4651      1.00000
     11       8.0053      1.00000
     12       8.2043      1.00000
     13       8.3742      1.00000
     14       8.7012      1.00000
     15       9.0141      1.00000
     16       9.2009      1.00000
     17       9.6761      0.03394
     18       9.7602     -0.02496
     19       9.8725     -0.00049
     20      10.4545     -0.00000
     21      10.6701     -0.00000
     22      10.8017     -0.00000
     23      11.0219     -0.00000
     24      11.1667     -0.00000
     25      11.4949     -0.00000
     26      13.9674      0.00000
     27      15.0583      0.00000
     28      17.0937      0.00000

 k-point    58 :       0.4615    0.2308    0.1538
  band No.  band energies     occupation 
      1     -41.8638      1.00000
      2     -41.8613      1.00000
      3     -41.8603      1.00000
      4       4.2815      1.00000
      5       4.9541      1.00000
      6       6.9675      1.00000
      7       7.0654      1.00000
      8       7.3308      1.00000
      9       7.4876      1.00000
     10       7.6255      1.00000
     11       7.8675      1.00000
     12       8.0707      1.00000
     13       8.2542      1.00000
     14       8.7600      1.00000
     15       8.8920      1.00000
     16       9.3127      1.00015
     17       9.5222      0.99529
     18       9.6660      0.07262
     19       9.8968     -0.00014
     20      10.4634     -0.00000
     21      10.6717     -0.00000
     22      10.8060     -0.00000
     23      10.9301     -0.00000
     24      11.1112     -0.00000
     25      11.1843     -0.00000
     26      14.5202      0.00000
     27      14.9784      0.00000
     28      17.0808      0.00000

 k-point    59 :       0.3077    0.3077    0.1538
  band No.  band energies     occupation 
      1     -41.8626      1.00000
      2     -41.8620      1.00000
      3     -41.8603      1.00000
      4       3.5180      1.00000
      5       6.2769      1.00000
      6       6.2972      1.00000
      7       6.8798      1.00000
      8       7.2706      1.00000
      9       7.3875      1.00000
     10       7.4438      1.00000
     11       8.0782      1.00000
     12       8.3531      1.00000
     13       8.3926      1.00000
     14       8.6726      1.00000
     15       9.0218      1.00000
     16       9.1372      1.00000
     17       9.6817      0.01702
     18       9.7422     -0.03250
     19       9.8421     -0.00196
     20      10.4200     -0.00000
     21      10.7210     -0.00000
     22      10.7584     -0.00000
     23      11.0528     -0.00000
     24      11.1754     -0.00000
     25      12.3597      0.00000
     26      12.7180      0.00000
     27      14.8734      0.00000
     28      17.0191      0.00000

 k-point    60 :       0.3846    0.3077    0.1538
  band No.  band energies     occupation 
      1     -41.8632      1.00000
      2     -41.8622      1.00000
      3     -41.8603      1.00000
      4       4.0490      1.00000
      5       5.8287      1.00000
      6       6.5095      1.00000
      7       6.8714      1.00000
      8       7.4289      1.00000
      9       7.5491      1.00000
     10       7.6064      1.00000
     11       7.9974      1.00000
     12       8.2300      1.00000
     13       8.3599      1.00000
     14       8.5947      1.00000
     15       8.9432      1.00000
     16       9.1899      1.00000
     17       9.5443      0.91994
     18       9.6419      0.20552
     19       9.7524     -0.02848
     20      10.3658     -0.00000
     21      10.6537     -0.00000
     22      10.8945     -0.00000
     23      10.9556     -0.00000
     24      11.0956     -0.00000
     25      11.8554      0.00000
     26      13.0669      0.00000
     27      14.6331      0.00000
     28      16.9757      0.00000

 k-point    61 :       0.4615    0.3077    0.1538
  band No.  band energies     occupation 
      1     -41.8636      1.00000
      2     -41.8621      1.00000
      3     -41.8603      1.00000
      4       4.6404      1.00000
      5       5.2604      1.00000
      6       6.6865      1.00000
      7       6.8109      1.00000
      8       7.5425      1.00000
      9       7.6836      1.00000
     10       7.7297      1.00000
     11       7.9072      1.00000
     12       8.1613      1.00000
     13       8.3129      1.00000
     14       8.6608      1.00000
     15       8.8092      1.00000
     16       9.2829      1.00003
     17       9.4167      1.01167
     18       9.5245      0.98966
     19       9.7504     -0.02935
     20      10.3665     -0.00000
     21      10.6376     -0.00000
     22      10.7593     -0.00000
     23      11.0365     -0.00000
     24      11.1483     -0.00000
     25      11.4365     -0.00000
     26      13.5753      0.00000
     27      14.1198      0.00000
     28      17.4216      0.00000

 k-point    62 :       0.3846    0.3846    0.1538
  band No.  band energies     occupation 
      1     -41.8631      1.00000
      2     -41.8629      1.00000
      3     -41.8603      1.00000
      4       4.5308      1.00000
      5       6.0684      1.00000
      6       6.1225      1.00000
      7       6.7207      1.00000
      8       7.6183      1.00000
      9       7.7144      1.00000
     10       7.7678      1.00000
     11       7.9788      1.00000
     12       8.3016      1.00000
     13       8.3133      1.00000
     14       8.5285      1.00000
     15       8.8580      1.00000
     16       9.1926      1.00000
     17       9.4192      1.01253
     18       9.5644      0.81008
     19       9.5995      0.54083
     20      10.3025     -0.00000
     21      10.5926     -0.00000
     22      10.8072     -0.00000
     23      10.9914     -0.00000
     24      11.1532     -0.00000
     25      12.0787      0.00000
     26      12.5524      0.00000
     27      13.9714      0.00000
     28      17.3688      0.00000

 k-point    63 :       0.4615    0.3846    0.1538
  band No.  band energies     occupation 
      1     -41.8634      1.00000
      2     -41.8629      1.00000
      3     -41.8603      1.00000
      4       5.0577      1.00000
      5       5.5992      1.00000
      6       6.3397      1.00000
      7       6.5459      1.00000
      8       7.7493      1.00000
      9       7.8447      1.00000
     10       7.8850      1.00000
     11       7.9507      1.00000
     12       8.2644      1.00000
     13       8.3418      1.00000
     14       8.5708      1.00000
     15       8.7290      1.00000
     16       9.2346      1.00000
     17       9.3363      1.00050
     18       9.4094      1.00939
     19       9.5823      0.68107
     20      10.2757     -0.00000
     21      10.5836     -0.00000
     22      10.6923     -0.00000
     23      10.9099     -0.00000
     24      11.4183     -0.00000
     25      11.7491      0.00000
     26      12.8437      0.00000
     27      13.3540      0.00000
     28      17.9728      0.00000

 k-point    64 :       0.4615    0.4615    0.1538
  band No.  band energies     occupation 
      1     -41.8633      1.00000
      2     -41.8633      1.00000
      3     -41.8603      1.00000
      4       5.4993      1.00000
      5       5.9056      1.00000
      6       5.9735      1.00000
      7       6.2607      1.00000
      8       7.8651      1.00000
      9       7.9572      1.00000
     10       7.9973      1.00000
     11       8.0003      1.00000
     12       8.3489      1.00000
     13       8.3673      1.00000
     14       8.5119      1.00000
     15       8.6461      1.00000
     16       9.1988      1.00000
     17       9.2786      1.00002
     18       9.3167      1.00018
     19       9.4936      1.03299
     20      10.2183     -0.00000
     21      10.5846     -0.00000
     22      10.6348     -0.00000
     23      10.7867     -0.00000
     24      11.7180      0.00000
     25      11.9478      0.00000
     26      12.4752      0.00000
     27      12.7706      0.00000
     28      18.6414      0.00000

 k-point    65 :       0.2308    0.2308    0.2308
  band No.  band energies     occupation 
      1     -41.8618      1.00000
      2     -41.8610      1.00000
      3     -41.8610      1.00000
      4       2.9433      1.00000
      5       6.4589      1.00000
      6       6.5035      1.00000
      7       6.5035      1.00000
      8       7.1354      1.00000
      9       7.2321      1.00000
     10       7.2321      1.00000
     11       8.2002      1.00000
     12       8.5681      1.00000
     13       8.5681      1.00000
     14       8.9593      1.00000
     15       9.0414      1.00000
     16       9.0414      1.00000
     17       9.7968     -0.01011
     18       9.8781     -0.00037
     19       9.8781     -0.00037
     20      10.5649     -0.00000
     21      10.5649     -0.00000
     22      10.8526     -0.00000
     23      11.2799     -0.00000
     24      11.2799     -0.00000
     25      13.1480      0.00000
     26      13.1480      0.00000
     27      13.3212      0.00000
     28      19.1053      0.00000

 k-point    66 :       0.3077    0.2308    0.2308
  band No.  band energies     occupation 
      1     -41.8624      1.00000
      2     -41.8614      1.00000
      3     -41.8610      1.00000
      4       3.3849      1.00000
      5       6.1869      1.00000
      6       6.6108      1.00000
      7       6.6542      1.00000
      8       7.2566      1.00000
      9       7.3694      1.00000
     10       7.3907      1.00000
     11       8.1227      1.00000
     12       8.4157      1.00000
     13       8.4618      1.00000
     14       8.8078      1.00000
     15       9.0480      1.00000
     16       9.0599      1.00000
     17       9.6335      0.26446
     18       9.7593     -0.02537
     19       9.7888     -0.01275
     20      10.5103     -0.00000
     21      10.6162     -0.00000
     22      10.8219     -0.00000
     23      11.2385     -0.00000
     24      11.2466     -0.00000
     25      12.3151      0.00000
     26      13.5982      0.00000
     27      13.6365      0.00000
     28      18.1221      0.00000

 k-point    67 :       0.3846    0.2308    0.2308
  band No.  band energies     occupation 
      1     -41.8632      1.00000
      2     -41.8614      1.00000
      3     -41.8609      1.00000
      4       3.9204      1.00000
      5       5.7214      1.00000
      6       6.7165      1.00000
      7       6.7708      1.00000
      8       7.3834      1.00000
      9       7.5280      1.00000
     10       7.5622      1.00000
     11       8.0319      1.00000
     12       8.2861      1.00000
     13       8.4155      1.00000
     14       8.7175      1.00000
     15       8.9941      1.00000
     16       9.1150      1.00000
     17       9.4929      1.03327
     18       9.6049      0.49472
     19       9.7668     -0.02192
     20      10.5258     -0.00000
     21      10.6767     -0.00000
     22      10.8204     -0.00000
     23      11.1653     -0.00000
     24      11.1735     -0.00000
     25      11.6152      0.00000
     26      13.9920      0.00000
     27      14.0222      0.00000
     28      17.3619      0.00000

 k-point    68 :       0.4615    0.2308    0.2308
  band No.  band energies     occupation 
      1     -41.8636      1.00000
      2     -41.8614      1.00000
      3     -41.8609      1.00000
      4       4.5178      1.00000
      5       5.1453      1.00000
      6       6.7740      1.00000
      7       6.8339      1.00000
      8       7.4613      1.00000
      9       7.6367      1.00000
     10       7.7168      1.00000
     11       7.9300      1.00000
     12       8.2187      1.00000
     13       8.3919      1.00000
     14       8.7559      1.00000
     15       8.8778      1.00000
     16       9.2055      1.00000
     17       9.3630      1.00169
     18       9.4944      1.03258
     19       9.7724     -0.01939
     20      10.6584     -0.00000
     21      10.6809     -0.00000
     22      10.9281     -0.00000
     23      10.9989     -0.00000
     24      11.0645     -0.00000
     25      11.2182     -0.00000
     26      14.2359      0.00000
     27      14.3117      0.00000
     28      16.8989      0.00000

 k-point    69 :       0.3077    0.3077    0.2308
  band No.  band energies     occupation 
      1     -41.8625      1.00000
      2     -41.8619      1.00000
      3     -41.8611      1.00000
      4       3.7932      1.00000
      5       6.3154      1.00000
      6       6.3241      1.00000
      7       6.6469      1.00000
      8       7.4077      1.00000
      9       7.5344      1.00000
     10       7.5509      1.00000
     11       8.0993      1.00000
     12       8.4079      1.00000
     13       8.4084      1.00000
     14       8.7688      1.00000
     15       9.0158      1.00000
     16       9.0493      1.00000
     17       9.4670      1.03271
     18       9.6384      0.22940
     19       9.6513      0.14692
     20      10.5022     -0.00000
     21      10.6969     -0.00000
     22      10.8036     -0.00000
     23      11.1938     -0.00000
     24      11.2470     -0.00000
     25      12.5409      0.00000
     26      12.7726      0.00000
     27      13.8116      0.00000
     28      17.3231      0.00000

 k-point    70 :       0.3846    0.3077    0.2308
  band No.  band energies     occupation 
      1     -41.8630      1.00000
      2     -41.8621      1.00000
      3     -41.8610      1.00000
      4       4.2825      1.00000
      5       5.8901      1.00000
      6       6.4311      1.00000
      7       6.6247      1.00000
      8       7.5702      1.00000
      9       7.7140      1.00000
     10       7.7264      1.00000
     11       8.0684      1.00000
     12       8.3629      1.00000
     13       8.4431      1.00000
     14       8.7243      1.00000
     15       8.9555      1.00000
     16       9.0703      1.00000
     17       9.3367      1.00051
     18       9.4751      1.03482
     19       9.6008      0.52936
     20      10.5224     -0.00000
     21      10.7428     -0.00000
     22      10.8663     -0.00000
     23      11.1009     -0.00000
     24      11.1995     -0.00000
     25      11.8762      0.00000
     26      13.0479      0.00000
     27      13.8729      0.00000
     28      16.8660      0.00000

 k-point    71 :       0.4615    0.3077    0.2308
  band No.  band energies     occupation 
      1     -41.8634      1.00000
      2     -41.8621      1.00000
      3     -41.8610      1.00000
      4       4.8206      1.00000
      5       5.3785      1.00000
      6       6.5133      1.00000
      7       6.5822      1.00000
      8       7.6757      1.00000
      9       7.8483      1.00000
     10       7.8569      1.00000
     11       8.0203      1.00000
     12       8.3444      1.00000
     13       8.4844      1.00000
     14       8.7416      1.00000
     15       8.8456      1.00000
     16       9.1388      1.00000
     17       9.2370      1.00000
     18       9.3426      1.00067
     19       9.5929      0.59592
     20      10.5884     -0.00000
     21      10.7658     -0.00000
     22      10.9496     -0.00000
     23      11.0505     -0.00000
     24      11.1505     -0.00000
     25      11.3651     -0.00000
     26      13.4090      0.00000
     27      13.7232      0.00000
     28      16.8555      0.00000

 k-point    72 :       0.3846    0.3846    0.2308
  band No.  band energies     occupation 
      1     -41.8630      1.00000
      2     -41.8627      1.00000
      3     -41.8610      1.00000
      4       4.7077      1.00000
      5       6.0349      1.00000
      6       6.0749      1.00000
      7       6.4866      1.00000
      8       7.7681      1.00000
      9       7.9089      1.00000
     10       7.9105      1.00000
     11       8.1076      1.00000
     12       8.4450      1.00000
     13       8.4485      1.00000
     14       8.7177      1.00000
     15       8.8958      1.00000
     16       9.0514      1.00000
     17       9.2135      1.00000
     18       9.3806      1.00346
     19       9.4505      1.02591
     20      10.4985     -0.00000
     21      10.7229     -0.00000
     22      11.0002     -0.00000
     23      11.0514     -0.00000
     24      11.1539     -0.00000
     25      12.0430      0.00000
     26      12.4358      0.00000
     27      13.5190      0.00000
     28      16.8332      0.00000

 k-point    73 :       0.4615    0.3846    0.2308
  band No.  band energies     occupation 
      1     -41.8632      1.00000
      2     -41.8627      1.00000
      3     -41.8610      1.00000
      4       5.1639      1.00000
      5       5.6274      1.00000
      6       6.2067      1.00000
      7       6.3477      1.00000
      8       7.9046      1.00000
      9       8.0268      1.00000
     10       8.0562      1.00000
     11       8.1319      1.00000
     12       8.4496      1.00000
     13       8.5277      1.00000
     14       8.7145      1.00000
     15       8.7981      1.00000
     16       9.0709      1.00000
     17       9.1534      1.00000
     18       9.2417      1.00000
     19       9.4160      1.01145
     20      10.4967     -0.00000
     21      10.7438     -0.00000
     22      10.8776     -0.00000
     23      11.0901     -0.00000
     24      11.2956     -0.00000
     25      11.6335      0.00000
     26      12.6727      0.00000
     27      13.0806      0.00000
     28      17.1602      0.00000

 k-point    74 :       0.4615    0.4615    0.2308
  band No.  band energies     occupation 
      1     -41.8631      1.00000
      2     -41.8631      1.00000
      3     -41.8610      1.00000
      4       5.5198      1.00000
      5       5.8482      1.00000
      6       5.9010      1.00000
      7       6.1167      1.00000
      8       8.0707      1.00000
      9       8.1679      1.00000
     10       8.1686      1.00000
     11       8.2345      1.00000
     12       8.5377      1.00000
     13       8.5430      1.00000
     14       8.6710      1.00000
     15       8.7434      1.00000
     16       9.0149      1.00000
     17       9.1191      1.00000
     18       9.1662      1.00000
     19       9.3123      1.00014
     20      10.4336     -0.00000
     21      10.7568     -0.00000
     22      10.8153     -0.00000
     23      10.9964     -0.00000
     24      11.5680     -0.00000
     25      11.7965      0.00000
     26      12.2878      0.00000
     27      12.5513      0.00000
     28      17.6759      0.00000

 k-point    75 :       0.3077    0.3077    0.3077
  band No.  band energies     occupation 
      1     -41.8625      1.00000
      2     -41.8618      1.00000
      3     -41.8618      1.00000
      4       4.1562      1.00000
      5       6.3308      1.00000
      6       6.3330      1.00000
      7       6.3330      1.00000
      8       7.5878      1.00000
      9       7.7283      1.00000
     10       7.7283      1.00000
     11       8.1321      1.00000
     12       8.4535      1.00000
     13       8.4535      1.00000
     14       8.8286      1.00000
     15       8.9981      1.00000
     16       8.9981      1.00000
     17       9.2916      1.00005
     18       9.4934      1.03306
     19       9.4934      1.03306
     20      10.6527     -0.00000
     21      10.6527     -0.00000
     22      10.8260     -0.00000
     23      11.2464     -0.00000
     24      11.2465     -0.00000
     25      12.7658      0.00000
     26      12.7658      0.00000
     27      12.9086      0.00000
     28      17.7508      0.00000

 k-point    76 :       0.3846    0.3077    0.3077
  band No.  band energies     occupation 
      1     -41.8629      1.00000
      2     -41.8621      1.00000
      3     -41.8617      1.00000
      4       4.5836      1.00000
      5       5.9489      1.00000
      6       6.3253      1.00000
      7       6.3330      1.00000
      8       7.7738      1.00000
      9       7.9179      1.00000
     10       7.9313      1.00000
     11       8.1687      1.00000
     12       8.4847      1.00000
     13       8.5208      1.00000
     14       8.8387      1.00000
     15       8.9511      1.00000
     16       8.9927      1.00000
     17       9.1638      1.00000
     18       9.3288      1.00034
     19       9.4285      1.01609
     20      10.6884     -0.00000
     21      10.7549     -0.00000
     22      10.8496     -0.00000
     23      11.2002     -0.00000
     24      11.2196     -0.00000
     25      11.9710      0.00000
     26      12.9687      0.00000
     27      12.9752      0.00000
     28      17.1206      0.00000

 k-point    77 :       0.4615    0.3077    0.3077
  band No.  band energies     occupation 
      1     -41.8632      1.00000
      2     -41.8621      1.00000
      3     -41.8616      1.00000
      4       5.0440      1.00000
      5       5.5150      1.00000
      6       6.3182      1.00000
      7       6.3285      1.00000
      8       7.8902      1.00000
      9       8.0552      1.00000
     10       8.0718      1.00000
     11       8.1840      1.00000
     12       8.5065      1.00000
     13       8.5895      1.00000
     14       8.8369      1.00000
     15       8.8743      1.00000
     16       9.0333      1.00000
     17       9.0918      1.00000
     18       9.1904      1.00000
     19       9.4168      1.01171
     20      10.7186     -0.00000
     21      10.8735     -0.00000
     22      10.9842     -0.00000
     23      11.1211     -0.00000
     24      11.1460     -0.00000
     25      11.3835     -0.00000
     26      13.0336      0.00000
     27      13.1046      0.00000
     28      16.7344      0.00000

 k-point    78 :       0.3846    0.3846    0.3077
  band No.  band energies     occupation 
      1     -41.8628      1.00000
      2     -41.8625      1.00000
      3     -41.8618      1.00000
      4       4.9282      1.00000
      5       5.9895      1.00000
      6       6.0183      1.00000
      7       6.2257      1.00000
      8       7.9898      1.00000
      9       8.1294      1.00000
     10       8.1483      1.00000
     11       8.2878      1.00000
     12       8.5822      1.00000
     13       8.5882      1.00000
     14       8.8977      1.00000
     15       8.9209      1.00000
     16       8.9558      1.00000
     17       9.0393      1.00000
     18       9.2308      1.00000
     19       9.2862      1.00003
     20      10.6927     -0.00000
     21      10.8123     -0.00000
     22      10.9356     -0.00000
     23      11.1526     -0.00000
     24      11.2306     -0.00000
     25      12.0260      0.00000
     26      12.2723      0.00000
     27      12.8183      0.00000
     28      16.7610      0.00000

 k-point    79 :       0.4615    0.3846    0.3077
  band No.  band energies     occupation 
      1     -41.8630      1.00000
      2     -41.8626      1.00000
      3     -41.8617      1.00000
      4       5.2902      1.00000
      5       5.6572      1.00000
      6       6.0636      1.00000
      7       6.1364      1.00000
      8       8.1306      1.00000
      9       8.2754      1.00000
     10       8.2962      1.00000
     11       8.3847      1.00000
     12       8.6344      1.00000
     13       8.6498      1.00000
     14       8.8649      1.00000
     15       8.9011      1.00000
     16       8.9389      1.00000
     17       9.0126      1.00000
     18       9.1055      1.00000
     19       9.2581      1.00001
     20      10.6788     -0.00000
     21      10.8829     -0.00000
     22      11.0234     -0.00000
     23      11.1501     -0.00000
     24      11.2110     -0.00000
     25      11.5122     -0.00000
     26      12.3887      0.00000
     27      12.6134      0.00000
     28      16.7454      0.00000

 k-point    80 :       0.4615    0.4615    0.3077
  band No.  band energies     occupation 
      1     -41.8629      1.00000
      2     -41.8629      1.00000
      3     -41.8617      1.00000
      4       5.5434      1.00000
      5       5.7839      1.00000
      6       5.8249      1.00000
      7       5.9666      1.00000
      8       8.3259      1.00000
      9       8.3980      1.00000
     10       8.4382      1.00000
     11       8.5752      1.00000
     12       8.6992      1.00000
     13       8.7190      1.00000
     14       8.8310      1.00000
     15       8.8664      1.00000
     16       8.8757      1.00000
     17       9.0086      1.00000
     18       9.0649      1.00000
     19       9.1580      1.00000
     20      10.6133     -0.00000
     21      10.9018     -0.00000
     22      10.9647     -0.00000
     23      11.1680     -0.00000
     24      11.3658     -0.00000
     25      11.5820     -0.00000
     26      12.0038      0.00000
     27      12.2023      0.00000
     28      17.0188      0.00000

 k-point    81 :       0.3846    0.3846    0.3846
  band No.  band energies     occupation 
      1     -41.8627      1.00000
      2     -41.8623      1.00000
      3     -41.8623      1.00000
      4       5.1733      1.00000
      5       5.9474      1.00000
      6       5.9474      1.00000
      7       5.9815      1.00000
      8       8.2290      1.00000
      9       8.3592      1.00000
     10       8.3592      1.00000
     11       8.5001      1.00000
     12       8.7146      1.00000
     13       8.7146      1.00000
     14       8.9075      1.00000
     15       8.9144      1.00000
     16       8.9144      1.00000
     17       9.0379      1.00000
     18       9.1410      1.00000
     19       9.1410      1.00000
     20      10.8044     -0.00000
     21      10.8772     -0.00000
     22      10.8773     -0.00000
     23      11.2203     -0.00000
     24      11.2203     -0.00000
     25      12.0428      0.00000
     26      12.0428      0.00000
     27      12.1326      0.00000
     28      16.9711      0.00000

 k-point    82 :       0.4615    0.3846    0.3846
  band No.  band energies     occupation 
      1     -41.8628      1.00000
      2     -41.8625      1.00000
      3     -41.8623      1.00000
      4       5.4281      1.00000
      5       5.6932      1.00000
      6       5.9226      1.00000
      7       5.9449      1.00000
      8       8.3741      1.00000
      9       8.4980      1.00000
     10       8.5294      1.00000
     11       8.6472      1.00000
     12       8.7530      1.00000
     13       8.8306      1.00000
     14       8.8331      1.00000
     15       8.9221      1.00000
     16       8.9345      1.00000
     17       9.0201      1.00000
     18       9.0721      1.00000
     19       9.1452      1.00000
     20      10.7696     -0.00000
     21      10.9648     -0.00000
     22      10.9840     -0.00000
     23      11.1800     -0.00000
     24      11.2026     -0.00000
     25      11.4789     -0.00000
     26      12.0139      0.00000
     27      12.0663      0.00000
     28      16.6696      0.00000

 k-point    83 :       0.4615    0.4615    0.3846
  band No.  band energies     occupation 
      1     -41.8628      1.00000
      2     -41.8627      1.00000
      3     -41.8623      1.00000
      4       5.5763      1.00000
      5       5.7297      1.00000
      6       5.7604      1.00000
      7       5.8346      1.00000
      8       8.5564      1.00000
      9       8.5838      1.00000
     10       8.6486      1.00000
     11       8.7600      1.00000
     12       8.8122      1.00000
     13       8.8175      1.00000
     14       8.9193      1.00000
     15       8.9548      1.00000
     16       9.0119      1.00000
     17       9.0365      1.00000
     18       9.1105      1.00000
     19       9.1617      1.00000
     20      10.7405     -0.00000
     21      10.9578     -0.00000
     22      10.9967     -0.00000
     23      11.2074     -0.00000
     24      11.2381     -0.00000
     25      11.4100     -0.00000
     26      11.6532      0.00000
     27      11.7682      0.00000
     28      16.6948      0.00000

 k-point    84 :       0.4615    0.4615    0.4615
  band No.  band energies     occupation 
      1     -41.8627      1.00000
      2     -41.8626      1.00000
      3     -41.8626      1.00000
      4       5.6268      1.00000
      5       5.6991      1.00000
      6       5.6991      1.00000
      7       5.7548      1.00000
      8       8.6577      1.00000
      9       8.6577      1.00000
     10       8.7022      1.00000
     11       8.7459      1.00000
     12       8.8298      1.00000
     13       8.8298      1.00000
     14       8.9620      1.00000
     15       8.9620      1.00000
     16       9.1936      1.00000
     17       9.2946      1.00005
     18       9.2946      1.00005
     19       9.3388      1.00056
     20      10.7924     -0.00000
     21      10.8727     -0.00000
     22      10.8727     -0.00000
     23      11.2127     -0.00000
     24      11.2127     -0.00000
     25      11.3612     -0.00000
     26      11.4210     -0.00000
     27      11.4210     -0.00000
     28      16.6496      0.00000


--------------------------------------------------------------------------------------------------------


 soft charge-density along one line, spin component            1
         0         1         2         3         4         5         6         7         8         9
 total charge-density along one line
 
 soft charge-density along one line, spin component            2
         0         1         2         3         4         5         6         7         8         9
 total charge-density along one line
 
 pseudopotential strength for first ion, spin component:            1
-45.191  -0.000   0.000   7.709   0.000  -0.000  -0.000  -0.000
 -0.000 -45.191  -0.000   0.000   7.709   0.000  -0.000  -0.000
  0.000  -0.000 -45.191  -0.000   0.000   7.709  -0.000  -0.000
  7.709   0.000  -0.000   5.606   0.000  -0.000   0.000   0.000
  0.000   7.709   0.000   0.000   5.606   0.000   0.000   0.000
 -0.000   0.000   7.709  -0.000   0.000   5.606   0.000   0.000
 -0.000  -0.000  -0.000   0.000   0.000   0.000  -2.271  -0.000
 -0.000  -0.000  -0.000   0.000   0.000   0.000  -0.000  -2.271
  0.000  -0.000   0.000  -0.000   0.000  -0.000  -0.000   0.000
 -0.000  -0.000  -0.000   0.000  -0.000   0.000  -0.000  -0.000
  0.000  -0.000   0.000  -0.000   0.000  -0.000  -0.000   0.000
 -0.000  -0.000  -0.000   0.000   0.000   0.000  -2.782  -0.000
 -0.000  -0.000  -0.000   0.000   0.000   0.000  -0.000  -2.782
  0.000  -0.000   0.000  -0.000   0.000  -0.000  -0.000   0.000
 -0.000  -0.000  -0.000   0.000  -0.000   0.000  -0.000  -0.000
  0.000  -0.000   0.000  -0.000   0.000  -0.000  -0.000   0.000
  0.000   0.000  -0.000   0.000   0.000   0.000  -0.000   0.000
  0.000   0.000  -0.000   0.000   0.000   0.000  -0.000   0.000
 pseudopotential strength for first ion, spin component:            2
-42.889   0.000   0.000   6.738  -0.000  -0.000  -0.000  -0.000
  0.000 -42.889   0.000  -0.000   6.738  -0.000   0.000  -0.000
  0.000   0.000 -42.889  -0.000  -0.000   6.738  -0.000   0.000
  6.738  -0.000  -0.000   5.877  -0.000  -0.000   0.000   0.000
 -0.000   6.738  -0.000  -0.000   5.877  -0.000   0.000   0.000
 -0.000  -0.000   6.738  -0.000  -0.000   5.877   0.000   0.000
 -0.000   0.000  -0.000   0.000   0.000   0.000  -0.444   0.000
 -0.000  -0.000   0.000   0.000   0.000   0.000   0.000  -0.444
  0.000  -0.000   0.000  -0.000   0.000  -0.000  -0.000  -0.000
  0.000   0.000  -0.000   0.000  -0.000   0.000   0.000   0.000
  0.000  -0.000   0.000  -0.000   0.000  -0.000  -0.000  -0.000
 -0.000   0.000  -0.000   0.000   0.000   0.000  -0.984   0.000
 -0.000  -0.000   0.000   0.000   0.000   0.000   0.000  -0.984
  0.000  -0.000   0.000  -0.000   0.000  -0.000  -0.000  -0.000
  0.000   0.000  -0.000   0.000  -0.000   0.000   0.000   0.000
  0.000  -0.000   0.000  -0.000   0.000  -0.000  -0.000  -0.000
  0.000   0.000  -0.000   0.000   0.000   0.000  -0.000  -0.000
  0.000   0.000  -0.000   0.000   0.000   0.000  -0.000  -0.000
 total augmentation occupancy for first ion, spin component:            1
  1.992  -0.000  -0.000  -0.027   0.000   0.000   0.000   0.000   0.000   0.000   0.000   0.000   0.000   0.000   0.000   0.000
 -0.000   1.992   0.000  -0.000  -0.027  -0.000   0.000   0.000   0.000   0.000   0.000   0.000   0.000   0.000   0.000   0.000
 -0.000   0.000   1.992   0.000  -0.000  -0.027   0.000   0.000   0.000   0.000   0.000   0.000   0.000   0.000   0.000   0.000
 -0.027  -0.000   0.000   0.186   0.000   0.000   0.000   0.000   0.000   0.000   0.000   0.000   0.000   0.000   0.000   0.000
  0.000  -0.027   0.000   0.000   0.186   0.000   0.000   0.000   0.000   0.000   0.000   0.000   0.000   0.000   0.000   0.000
 -0.000   0.000  -0.027   0.000  -0.000   0.186   0.000   0.000   0.000   0.000   0.000   0.000   0.000   0.000   0.000   0.000
  0.000   0.000   0.000   0.000   0.000   0.000   2.850   0.000  -0.000  -0.000  -0.000  -1.695  -0.000   0.000   0.000  -0.000
  0.000   0.000   0.000   0.000   0.000   0.000   0.000   2.850   0.000   0.000  -0.000  -0.000  -1.695   0.000   0.000   0.000
  0.000   0.000   0.000   0.000   0.000   0.000  -0.000   0.000   3.186   0.000   0.000  -0.000   0.000  -1.905   0.000  -0.000
  0.000   0.000   0.000   0.000   0.000   0.000  -0.000  -0.000   0.000   2.850  -0.000   0.000  -0.000   0.000  -1.695  -0.000
  0.000   0.000   0.000   0.000   0.000   0.000   0.000   0.000  -0.000  -0.000   3.186  -0.000  -0.000   0.000   0.000  -1.905
  0.000   0.000   0.000   0.000   0.000   0.000  -1.695  -0.000   0.000   0.000   0.000   1.916   0.000  -0.000   0.000   0.000
  0.000   0.000   0.000   0.000   0.000   0.000   0.000  -1.695  -0.000  -0.000  -0.000  -0.000   1.916   0.000  -0.000  -0.000
  0.000   0.000   0.000   0.000   0.000   0.000  -0.000  -0.000  -1.905   0.000  -0.000  -0.000  -0.000   1.880  -0.000   0.000
  0.000   0.000   0.000   0.000   0.000   0.000  -0.000   0.000  -0.000  -1.695   0.000   0.000  -0.000   0.000   1.916  -0.000
  0.000   0.000   0.000   0.000   0.000   0.000   0.000  -0.000   0.000   0.000  -1.905   0.000  -0.000  -0.000   0.000   1.880
  0.000   0.000   0.000   0.000   0.000   0.000  -0.000   0.000   0.000  -0.000   0.000  -0.000  -0.000  -0.000   0.000  -0.000
  0.000   0.000   0.000   0.000   0.000   0.000  -0.000  -0.000   0.000  -0.000   0.000  -0.000  -0.000   0.000   0.000  -0.000
 total augmentation occupancy for first ion, spin component:            2
 -0.002  -0.000   0.000  -0.009  -0.000   0.000   0.000   0.000   0.000   0.000   0.000   0.000   0.000   0.000   0.000   0.000
 -0.000  -0.002   0.000  -0.000  -0.009  -0.000   0.000   0.000   0.000   0.000   0.000   0.000   0.000   0.000   0.000   0.000
  0.000   0.000  -0.002   0.000   0.000  -0.009   0.000   0.000   0.000   0.000   0.000   0.000   0.000   0.000   0.000   0.000
 -0.009   0.000  -0.000  -0.010  -0.000   0.000   0.000   0.000   0.000   0.000   0.000   0.000   0.000   0.000   0.000   0.000
  0.000  -0.009   0.000   0.000  -0.010  -0.000   0.000   0.000   0.000   0.000   0.000   0.000   0.000   0.000   0.000   0.000
  0.000  -0.000  -0.009   0.000  -0.000  -0.010   0.000   0.000   0.000   0.000   0.000   0.000   0.000   0.000   0.000   0.000
  0.000   0.000   0.000   0.000   0.000   0.000   2.319   0.000   0.000  -0.000   0.000  -0.932  -0.000  -0.000  -0.000   0.000
  0.000   0.000   0.000   0.000   0.000   0.000   0.000   2.319  -0.000  -0.000   0.000   0.000  -0.932   0.000   0.000   0.000
  0.000   0.000   0.000   0.000   0.000   0.000  -0.000   0.000   2.619   0.000   0.000   0.000   0.000  -1.018   0.000   0.000
  0.000   0.000   0.000   0.000   0.000   0.000  -0.000  -0.000   0.000   2.319  -0.000   0.000   0.000   0.000  -0.932   0.000
  0.000   0.000   0.000   0.000   0.000   0.000   0.000   0.000  -0.000   0.000   2.619   0.000   0.000  -0.000  -0.000  -1.018
  0.000   0.000   0.000   0.000   0.000   0.000  -0.932   0.000   0.000   0.000  -0.000   0.119   0.000   0.000   0.000   0.000
  0.000   0.000   0.000   0.000   0.000   0.000  -0.000  -0.932   0.000  -0.000   0.000   0.000   0.119  -0.000   0.000  -0.000
  0.000   0.000   0.000   0.000   0.000   0.000   0.000  -0.000  -1.018  -0.000  -0.000  -0.000  -0.000   0.171  -0.000   0.000
  0.000   0.000   0.000   0.000   0.000   0.000  -0.000   0.000   0.000  -0.932   0.000   0.000   0.000   0.000   0.119   0.000
  0.000   0.000   0.000   0.000   0.000   0.000   0.000  -0.000  -0.000   0.000  -1.018  -0.000   0.000   0.000  -0.000   0.171
  0.000   0.000   0.000   0.000   0.000   0.000   0.000  -0.000   0.000   0.000   0.000  -0.000  -0.000   0.000   0.000   0.000
  0.000   0.000   0.000   0.000   0.000   0.000   0.000   0.000   0.000   0.000  -0.000   0.000   0.000   0.000  -0.000   0.000


------------------------ aborting loop because EDIFF is reached ----------------------------------------


    CHARGE:  cpu time      0.4490: real time      0.4489
    FORLOC:  cpu time      0.0018: real time      0.0018
    FORNL :  cpu time      2.0340: real time      2.0334
    STRESS:  cpu time      6.0802: real time      6.0787
    FORCOR:  cpu time      0.0078: real time      0.0078
    FORHAR:  cpu time      0.0014: real time      0.0014
    MIXING:  cpu time      0.0046: real time      0.0045
    OFIELD:  cpu time      0.0000: real time      0.0000

  FORCE on cell =-STRESS in cart. coord.  units (eV):
  Direction    XX          YY          ZZ          XY          YZ          ZX
  --------------------------------------------------------------------------------------
  Alpha Z   206.17121   206.17121   206.17121
  Ewald   -1320.02486 -1320.02486 -1320.02486    -0.00000    -0.00000     0.00000
  Hartree   344.52975   344.52975   344.52975    -0.00000    -0.00000    -0.00000
  E(xc)    -228.37337  -228.37337  -228.37337    -0.00000     0.00000    -0.00000
  Local      62.44534    62.44534    62.44534    -0.00000     0.00000     0.00000
  n-local   -41.49054   -46.07169   -43.70372     5.89747     4.15220     3.12558
  augment   609.95384   609.95384   609.95385     0.00000     0.00000     0.00000
  Kinetic   371.26212   364.75374   366.07257     1.48200    -0.30770     0.19304
  Fock        0.00000     0.00000     0.00000     0.00000     0.00000     0.00000
  -------------------------------------------------------------------------------------
  Total      -1.69059    -1.69059    -1.69059     0.00000    -0.00000     0.00000
  in kB     -59.03378   -59.03378   -59.03378     0.00000    -0.00000     0.00000
  external pressure =      -59.03 kB  Pullay stress =        0.00 kB


 VOLUME and BASIS-vectors are now :
 -----------------------------------------------------------------------------
  energy-cutoff  :      520.00
  volume of cell :       45.88
      direct lattice vectors                 reciprocal lattice vectors
     3.580000000  0.000000000  0.000000000     0.279329609  0.000000000  0.000000000
     0.000000000  3.580000000  0.000000000     0.000000000  0.279329609  0.000000000
     0.000000000  0.000000000  3.580000000     0.000000000  0.000000000  0.279329609

  length of vectors
     3.580000000  3.580000000  3.580000000     0.279329609  0.279329609  0.279329609


 FORCES acting on ions
    electron-ion (+dipol)            ewald-force                    non-local-force                 convergence-correction
 -----------------------------------------------------------------------------------------------
   -.475E-13 -.565E-13 -.867E-13   -.279E-13 0.330E-14 -.173E-14   -.198E-24 0.000E+00 0.000E+00   0.614E-13 0.126E-13 -.536E-14
   0.406E-12 0.257E-11 0.148E-11   0.114E-13 -.135E-14 -.824E-14   -.158E-23 0.000E+00 0.000E+00   0.568E-14 0.126E-14 -.968E-15
   0.408E-12 -.385E-13 0.543E-11   0.139E-13 -.253E-14 0.514E-14   0.330E-23 0.000E+00 0.000E+00   -.144E-14 0.203E-14 -.156E-13
   -.339E-13 0.398E-12 0.384E-12   0.563E-14 0.353E-15 0.503E-14   0.105E-25 0.000E+00 0.000E+00   0.195E-13 -.320E-14 -.131E-13
 -----------------------------------------------------------------------------------------------
   0.732E-12 0.287E-11 0.720E-11   0.305E-14 -.229E-15 0.213E-15   0.153E-23 0.000E+00 0.000E+00   0.851E-13 0.127E-13 -.350E-13
 
 
 POSITION                                       TOTAL-FORCE (eV/Angst)
 -----------------------------------------------------------------------------------
      0.00000      0.00000      0.00000        -0.000000      0.000000      0.000000
      1.79000      1.79000      0.00000         0.000000      0.000000      0.000000
      1.79000      0.00000      1.79000         0.000000      0.000000      0.000000
      0.00000      1.79000      1.79000        -0.000000      0.000000      0.000000
 -----------------------------------------------------------------------------------
    total drift:                                0.000000      0.000000      0.000000


--------------------------------------------------------------------------------------------------------



  FREE ENERGIE OF THE ION-ELECTRON SYSTEM (eV)
  ---------------------------------------------------
  free  energy   TOTEN  =       -29.30251263 eV

  energy  without entropy=      -29.30273781  energy(sigma->0) =      -29.30258769
 


--------------------------------------------------------------------------------------------------------


    POTLOK:  cpu time      0.4744: real time      0.4744


--------------------------------------------------------------------------------------------------------


     LOOP+:  cpu time    115.8495: real time    115.8225
    4ORBIT:  cpu time      0.0000: real time      0.0000

 total amount of memory used by VASP MPI-rank0   176387. kBytes
=======================================================================

   base                                    :      30000. kBytes
   nonlr-proj                              :       4144. kBytes
   fftplans                                :      26164. kBytes
   grid                                    :      16231. kBytes
   one-center                              :        124. kBytes
   wavefun                                 :      99724. kBytes
 
  
  
 General timing and accounting informations for this job:
 ========================================================
  
                  Total CPU time used (sec):      118.350
                            User time (sec):      117.705
                          System time (sec):        0.645
                         Elapsed time (sec):      118.304
  
                   Maximum memory used (kb):     1699228.
                   Average memory used (kb):          N/A
  
                          Minor page faults:       392239
                          Major page faults:            0
                 Voluntary context switches:         2477
