bcc Fe 2x2x2, four-state state2_pm      
   1.0000000000000000     
     5.7320000000000002    0.0000000000000000    0.0000000000000000
     0.0000000000000000    5.7320000000000002    0.0000000000000000
     0.0000000000000000    0.0000000000000000    5.7320000000000002
   Fe
    16
Direct
     0.0000000000000000    0.0000000000000000    0.0000000000000000
     0.2500000000000000    0.2500000000000000    0.2500000000000000
     0.0000000000000000    0.0000000000000000    0.5000000000000000
     0.2500000000000000    0.2500000000000000    0.7500000000000000
     0.0000000000000000    0.5000000000000000    0.0000000000000000
     0.2500000000000000    0.7500000000000000    0.2500000000000000
     0.0000000000000000    0.5000000000000000    0.5000000000000000
     0.2500000000000000    0.7500000000000000    0.7500000000000000
     0.5000000000000000    0.0000000000000000    0.0000000000000000
     0.7500000000000000    0.2500000000000000    0.2500000000000000
     0.5000000000000000    0.0000000000000000    0.5000000000000000
     0.7500000000000000    0.2500000000000000    0.7500000000000000
     0.5000000000000000    0.5000000000000000    0.0000000000000000
     0.7500000000000000    0.7500000000000000    0.2500000000000000
     0.5000000000000000    0.5000000000000000    0.5000000000000000
     0.7500000000000000    0.7500000000000000    0.7500000000000000

  0.00000000E+00  0.00000000E+00  0.00000000E+00
  0.00000000E+00  0.00000000E+00  0.00000000E+00
  0.00000000E+00  0.00000000E+00  0.00000000E+00
  0.00000000E+00  0.00000000E+00  0.00000000E+00
  0.00000000E+00  0.00000000E+00  0.00000000E+00
  0.00000000E+00  0.00000000E+00  0.00000000E+00
  0.00000000E+00  0.00000000E+00  0.00000000E+00
  0.00000000E+00  0.00000000E+00  0.00000000E+00
  0.00000000E+00  0.00000000E+00  0.00000000E+00
  0.00000000E+00  0.00000000E+00  0.00000000E+00
  0.00000000E+00  0.00000000E+00  0.00000000E+00
  0.00000000E+00  0.00000000E+00  0.00000000E+00
  0.00000000E+00  0.00000000E+00  0.00000000E+00
  0.00000000E+00  0.00000000E+00  0.00000000E+00
  0.00000000E+00  0.00000000E+00  0.00000000E+00
  0.00000000E+00  0.00000000E+00  0.00000000E+00
