Fe Co Ni Mn Al Si                       
    1.000000000000000     
     8.5800000000000001    0.0000000000000000    0.0000000000000000
     0.0000000000000000    8.5800000000000001    0.0000000000000000
     0.0000000000000000    0.0000000000000000    8.5800000000000001
   Fe   Co   Ni   Mn   Al   Si
    14    24     6     1     2     7
Direct
     0.0000000000000000    0.0000000000000000    0.0000000000000000
     0.0000000000000000    0.0000000000000000    0.3333333333333357
     0.0000000000000000    0.6666666666666643    0.0000000000000000
     0.1666666666666643    0.8333333333333357    0.5000000000000000
     0.0000000000000000    0.6666666666666643    0.6666666666666643
     0.1666666666666643    0.8333333333333357    0.8333333333333357
     0.3333333333333357    0.3333333333333357    0.0000000000000000
     0.3333333333333357    0.3333333333333357    0.6666666666666643
     0.5000000000000000    0.5000000000000000    0.8333333333333357
     0.3333333333333357    0.6666666666666643    0.3333333333333357
     0.3333333333333357    0.6666666666666643    0.6666666666666643
     0.5000000000000000    0.8333333333333357    0.8333333333333357
     0.8333333333333357    0.5000000000000000    0.5000000000000000
     0.6666666666666643    0.6666666666666643    0.6666666666666643
     0.1666666666666643    0.1666666666666643    0.1666666666666643
     0.0000000000000000    0.0000000000000000    0.6666666666666643
     0.1666666666666643    0.1666666666666643    0.8333333333333357
     0.0000000000000000    0.3333333333333357    0.0000000000000000
     0.1666666666666643    0.5000000000000000    0.1666666666666643
     0.0000000000000000    0.3333333333333357    0.3333333333333357
     0.0000000000000000    0.3333333333333357    0.6666666666666643
     0.1666666666666643    0.5000000000000000    0.8333333333333357
     0.1666666666666643    0.8333333333333357    0.1666666666666643
     0.0000000000000000    0.6666666666666643    0.3333333333333357
     0.3333333333333357    0.0000000000000000    0.0000000000000000
     0.5000000000000000    0.1666666666666643    0.1666666666666643
     0.5000000000000000    0.1666666666666643    0.5000000000000000
     0.3333333333333357    0.6666666666666643    0.0000000000000000
     0.5000000000000000    0.8333333333333357    0.1666666666666643
     0.5000000000000000    0.8333333333333357    0.5000000000000000
     0.8333333333333357    0.1666666666666643    0.1666666666666643
     0.6666666666666643    0.0000000000000000    0.3333333333333357
     0.8333333333333357    0.1666666666666643    0.5000000000000000
     0.8333333333333357    0.1666666666666643    0.8333333333333357
     0.6666666666666643    0.3333333333333357    0.0000000000000000
     0.8333333333333357    0.5000000000000000    0.8333333333333357
     0.6666666666666643    0.6666666666666643    0.3333333333333357
     0.8333333333333357    0.8333333333333357    0.8333333333333357
     0.1666666666666643    0.1666666666666643    0.5000000000000000
     0.1666666666666643    0.5000000000000000    0.5000000000000000
     0.3333333333333357    0.0000000000000000    0.6666666666666643
     0.6666666666666643    0.0000000000000000    0.6666666666666643
     0.8333333333333357    0.5000000000000000    0.1666666666666643
     0.6666666666666643    0.3333333333333357    0.3333333333333357
     0.5000000000000000    0.5000000000000000    0.1666666666666643
     0.6666666666666643    0.3333333333333357    0.6666666666666643
     0.6666666666666643    0.6666666666666643    0.0000000000000000
     0.3333333333333357    0.0000000000000000    0.3333333333333357
     0.5000000000000000    0.1666666666666643    0.8333333333333357
     0.3333333333333357    0.3333333333333357    0.3333333333333357
     0.5000000000000000    0.5000000000000000    0.5000000000000000
     0.6666666666666643    0.0000000000000000    0.0000000000000000
     0.8333333333333357    0.8333333333333357    0.1666666666666643
     0.8333333333333357    0.8333333333333357    0.5000000000000000
 
  0.00000000E+00  0.00000000E+00  0.00000000E+00
  0.00000000E+00  0.00000000E+00  0.00000000E+00
  0.00000000E+00  0.00000000E+00  0.00000000E+00
  0.00000000E+00  0.00000000E+00  0.00000000E+00
  0.00000000E+00  0.00000000E+00  0.00000000E+00
  0.00000000E+00  0.00000000E+00  0.00000000E+00
  0.00000000E+00  0.00000000E+00  0.00000000E+00
  0.00000000E+00  0.00000000E+00  0.00000000E+00
  0.00000000E+00  0.00000000E+00  0.00000000E+00
  0.00000000E+00  0.00000000E+00  0.00000000E+00
  0.00000000E+00  0.00000000E+00  0.00000000E+00
  0.00000000E+00  0.00000000E+00  0.00000000E+00
  0.00000000E+00  0.00000000E+00  0.00000000E+00
  0.00000000E+00  0.00000000E+00  0.00000000E+00
  0.00000000E+00  0.00000000E+00  0.00000000E+00
  0.00000000E+00  0.00000000E+00  0.00000000E+00
  0.00000000E+00  0.00000000E+00  0.00000000E+00
  0.00000000E+00  0.00000000E+00  0.00000000E+00
  0.00000000E+00  0.00000000E+00  0.00000000E+00
  0.00000000E+00  0.00000000E+00  0.00000000E+00
  0.00000000E+00  0.00000000E+00  0.00000000E+00
  0.00000000E+00  0.00000000E+00  0.00000000E+00
  0.00000000E+00  0.00000000E+00  0.00000000E+00
  0.00000000E+00  0.00000000E+00  0.00000000E+00
  0.00000000E+00  0.00000000E+00  0.00000000E+00
  0.00000000E+00  0.00000000E+00  0.00000000E+00
  0.00000000E+00  0.00000000E+00  0.00000000E+00
  0.00000000E+00  0.00000000E+00  0.00000000E+00
  0.00000000E+00  0.00000000E+00  0.00000000E+00
  0.00000000E+00  0.00000000E+00  0.00000000E+00
  0.00000000E+00  0.00000000E+00  0.00000000E+00
  0.00000000E+00  0.00000000E+00  0.00000000E+00
  0.00000000E+00  0.00000000E+00  0.00000000E+00
  0.00000000E+00  0.00000000E+00  0.00000000E+00
  0.00000000E+00  0.00000000E+00  0.00000000E+00
  0.00000000E+00  0.00000000E+00  0.00000000E+00
  0.00000000E+00  0.00000000E+00  0.00000000E+00
  0.00000000E+00  0.00000000E+00  0.00000000E+00
  0.00000000E+00  0.00000000E+00  0.00000000E+00
  0.00000000E+00  0.00000000E+00  0.00000000E+00
  0.00000000E+00  0.00000000E+00  0.00000000E+00
  0.00000000E+00  0.00000000E+00  0.00000000E+00
  0.00000000E+00  0.00000000E+00  0.00000000E+00
  0.00000000E+00  0.00000000E+00  0.00000000E+00
  0.00000000E+00  0.00000000E+00  0.00000000E+00
  0.00000000E+00  0.00000000E+00  0.00000000E+00
  0.00000000E+00  0.00000000E+00  0.00000000E+00
  0.00000000E+00  0.00000000E+00  0.00000000E+00
  0.00000000E+00  0.00000000E+00  0.00000000E+00
  0.00000000E+00  0.00000000E+00  0.00000000E+00
  0.00000000E+00  0.00000000E+00  0.00000000E+00
  0.00000000E+00  0.00000000E+00  0.00000000E+00
  0.00000000E+00  0.00000000E+00  0.00000000E+00
  0.00000000E+00  0.00000000E+00  0.00000000E+00
