       N       E                     dE             d eps       ncg     rms          rms(c)
DAV:   1     0.738375476168E+04    0.73838E+04   -0.25795E+05100416   0.207E+03
DAV:   2     0.694229789573E+03   -0.66895E+04   -0.63790E+04 94248   0.589E+02
DAV:   3    -0.335710938969E+03   -0.10299E+04   -0.85044E+03 94248   0.239E+02
DAV:   4    -0.426300469005E+03   -0.90590E+02   -0.84898E+02106314   0.751E+01
DAV:   5    -0.429444983728E+03   -0.31445E+01   -0.31119E+01109992   0.137E+01    0.752E+01
DAV:   6    -0.441604567352E+03   -0.12160E+02   -0.58958E+02105216   0.108E+02    0.114E+02
DAV:   7    -0.462832130032E+03   -0.21228E+02   -0.21823E+02103840   0.117E+02    0.123E+02
DAV:   8    -0.410654200295E+03    0.52178E+02   -0.10385E+02121704   0.747E+01    0.787E+01
DAV:   9    -0.378654648478E+03    0.32000E+02   -0.52131E+01125664   0.562E+01    0.419E+01
DAV:  10    -0.399931342729E+03   -0.21277E+02   -0.46222E+01121720   0.529E+01    0.731E+01
DAV:  11    -0.378974587105E+03    0.20957E+02   -0.30915E+01106912   0.345E+01    0.308E+01
DAV:  12    -0.376225654508E+03    0.27489E+01   -0.75256E+00111616   0.232E+01    0.210E+01
DAV:  13    -0.377569412135E+03   -0.13438E+01   -0.48037E+00122072   0.170E+01    0.269E+01
DAV:  14    -0.375753654521E+03    0.18158E+01   -0.27890E+00103888   0.145E+01    0.123E+01
DAV:  15    -0.376205169882E+03   -0.45152E+00   -0.12012E+00122600   0.877E+00    0.142E+01
DAV:  16    -0.376098272971E+03    0.10690E+00   -0.88154E-01105880   0.740E+00    0.100E+01
DAV:  17    -0.376196675315E+03   -0.98402E-01   -0.48952E-01111432   0.565E+00    0.920E+00
DAV:  18    -0.376428930374E+03   -0.23226E+00   -0.41114E-01119072   0.506E+00    0.794E+00
DAV:  19    -0.376501698865E+03   -0.72768E-01   -0.47383E-01116384   0.623E+00    0.704E+00
DAV:  20    -0.376793674292E+03   -0.29198E+00   -0.58399E-01112384   0.713E+00    0.958E+00
DAV:  21    -0.376559929436E+03    0.23374E+00   -0.39631E-01109120   0.616E+00    0.466E+00
DAV:  22    -0.376631178436E+03   -0.71249E-01   -0.22173E-01119592   0.421E+00    0.530E+00
DAV:  23    -0.376631039068E+03    0.13937E-03   -0.14277E-01117312   0.336E+00    0.358E+00
DAV:  24    -0.376627883588E+03    0.31555E-02   -0.84049E-02109624   0.278E+00    0.280E+00
DAV:  25    -0.376640083020E+03   -0.12199E-01   -0.73988E-02118416   0.257E+00    0.283E+00
DAV:  26    -0.376616684375E+03    0.23399E-01   -0.50766E-02107016   0.215E+00    0.128E+00
DAV:  27    -0.376624573961E+03   -0.78896E-02   -0.24042E-02120184   0.145E+00    0.166E+00
DAV:  28    -0.376616907039E+03    0.76669E-02   -0.17591E-02106312   0.130E+00    0.822E-01
DAV:  29    -0.376616841019E+03    0.66020E-04   -0.77575E-03114656   0.837E-01    0.738E-01
DAV:  30    -0.376616379148E+03    0.46187E-03   -0.45841E-03111688   0.650E-01    0.590E-01
DAV:  31    -0.376615244853E+03    0.11343E-02   -0.20081E-03105704   0.454E-01    0.231E-01
DAV:  32    -0.376615451393E+03   -0.20654E-03   -0.66620E-04122784   0.238E-01    0.247E-01
DAV:  33    -0.376615315286E+03    0.13611E-03   -0.42437E-04108992   0.203E-01    0.131E-01
DAV:  34    -0.376615347058E+03   -0.31773E-04   -0.21484E-04109488   0.143E-01    0.143E-01
DAV:  35    -0.376615329608E+03    0.17450E-04   -0.16712E-04113064   0.119E-01    0.117E-01
DAV:  36    -0.376615290609E+03    0.38999E-04   -0.93368E-05106280   0.906E-02    0.517E-02
DAV:  37    -0.376615299069E+03   -0.84600E-05   -0.38179E-05113360   0.579E-02    0.604E-02
DAV:  38    -0.376615286164E+03    0.12904E-04   -0.23790E-05104312   0.507E-02    0.230E-02
DAV:  39    -0.376615288180E+03   -0.20154E-05   -0.93161E-06 98448   0.304E-02    0.298E-02
DAV:  40    -0.376615285136E+03    0.30436E-05   -0.50992E-06 86184   0.235E-02    0.128E-02
DAV:  41    -0.376615284860E+03    0.27615E-06   -0.15536E-06 49392   0.132E-02
   1 F= -.37661528E+03 E0= -.37661740E+03  d E =0.634052E-02  mag=    77.0625
