B2 FeCo volume scan, a = 2.857 A        
    1.000000000000000     
     2.8570000000000002    0.0000000000000000    0.0000000000000000
     0.0000000000000000    2.8570000000000002    0.0000000000000000
     0.0000000000000000    0.0000000000000000    2.8570000000000002
   Fe   Co
     1     1
Direct
     0.0000000000000000    0.0000000000000000    0.0000000000000000
     0.5000000000000000    0.5000000000000000    0.5000000000000000
 
  0.00000000E+00  0.00000000E+00  0.00000000E+00
  0.00000000E+00  0.00000000E+00  0.00000000E+00
