 vasp.6.5.1 10Mar25 (build May 15 2026 23:14:27) complex                         
 executed on              LinuxNV date 2026.06.02  10:33:01
 running    1 mpi-ranks, on    1 nodes
 distrk:  each k-point on    1 cores,    1 groups
 distr:  one band on NCORE=   1 cores,    1 groups
 Offloading initialized ...    1 GPUs detected


--------------------------------------------------------------------------------------------------------


 INCAR:
   SYSTEM = SCF
   ENCUT = 520
   PREC = Accurate
   EDIFF = 1E-6
   NELM = 120
   ALGO = Normal
   ISMEAR = 1
   SIGMA = 0.10
   LASPH = .TRUE.
   LMAXMIX = 4
   ADDGRID = .TRUE.
   LREAL = Auto
   ISYM = 2
   IBRION = -1
   NSW = 0
   LWAVE = .FALSE.
   LCHARG = .TRUE.
   ISPIN = 2
   MAGMOM = 1*2.5 1*1.7

 POTCAR:    PAW_PBE Fe_pv 02Aug2007               
 POTCAR:    PAW_PBE Co 02Aug2007                  
 POTCAR:    PAW_PBE Fe_pv 02Aug2007               
   SHA256 =  5d22e414b1f82158bf2c7ecb8b97b28fd0923e48cadc1c3bf74d524558f5dd32 Fe_pv/POTCAR          
   COPYR  = (c) Copyright 02Aug2007 Georg Kresse                                                    
   COPYR  = This file is part of the software VASP. Any use, copying, and all other rights are regul
   COPYR  = If you do not have a valid VASP license, you may not use, copy or distribute this file. 
   VRHFIN =Fe:  3pd7s1                                                                              
   LEXCH  = PE                                                                                      
   EATOM  =  2457.4239 eV,  180.6156 Ry                                                             
                                                                                                    
   TITEL  = PAW_PBE Fe_pv 02Aug2007                                                                 
   LULTRA =        F    use ultrasoft PP ?                                                          
   IUNSCR =        1    unscreen: 0-lin 1-nonlin 2-no                                               
   RPACOR =    1.750    partial core radius                                                         
   POMASS =   55.847; ZVAL   =   14.000    mass and valenz                                          
   RCORE  =    2.200    outmost cutoff radius                                                       
   RWIGS  =    2.200; RWIGS  =    1.164    wigner-seitz radius (au A)                               
   ENMAX  =  293.238; ENMIN  =  219.928 eV                                                          
   ICORE  =        3    local potential                                                             
   LCOR   =        T    correct aug charges                                                         
   LPAW   =        T    paw PP                                                                      
   EAUG   =  578.342                                                                                
   DEXC   =    0.000                                                                                
   RMAX   =    2.249    core radius for proj-oper                                                   
   RAUG   =    1.300    factor for augmentation sphere                                              
   RDEP   =    2.296    radius for radial grids                                                     
   RDEPT  =    1.766    core radius for aug-charge                                                  
                                                                                                    
   Atomic configuration                                                                             
    8 entries                                                                                       
     n  l   j            E        occ.                                                              
     1  0  0.50     -6993.8440   2.0000                                                             
     2  0  0.50      -814.6047   2.0000                                                             
     2  1  1.50      -693.3689   6.0000                                                             
     3  0  0.50       -89.4732   2.0000                                                             
     3  1  1.50       -55.6373   6.0000                                                             
     3  2  2.50        -3.8151   7.0000                                                             
     4  0  0.50        -4.2551   1.0000                                                             
     4  3  2.50        -1.3606   0.0000                                                             
   Description                                                                                      
     l       E           TYP  RCUT    TYP  RCUT                                                     
     1    -55.6372668     23  2.000                                                                 
     1     -5.4423304     23  2.000                                                                 
     2     -3.8151096     23  2.200                                                                 
     2     -5.1756922     23  2.200                                                                 
     0     -4.2550951     23  2.200                                                                 
     0     27.2116520     23  2.200                                                                 
     3     -1.3605826     23  2.200                                                                 
  local pseudopotential read in
  partial core-charges read in
  partial kinetic energy density read in
  atomic valenz-charges read in
  non local Contribution for L=            1  read in
    real space projection operators read in
  non local Contribution for L=            1  read in
    real space projection operators read in
  non local Contribution for L=            2  read in
    real space projection operators read in
  non local Contribution for L=            2  read in
    real space projection operators read in
  non local Contribution for L=            0  read in
    real space projection operators read in
  non local Contribution for L=            0  read in
    real space projection operators read in
    PAW grid and wavefunctions read in
 
   number of l-projection  operators is LMAX  =            6
   number of lm-projection operators is LMMAX =           18
 
 POTCAR:    PAW_PBE Co 02Aug2007                  
   SHA256 =  0e690c60710354995174544f52f9f2c30879afabeffe3b3fbd4001cb294e56d4 Co/POTCAR             
   COPYR  = (c) Copyright 02Aug2007 Georg Kresse                                                    
   COPYR  = This file is part of the software VASP. Any use, copying, and all other rights are regul
   COPYR  = If you do not have a valid VASP license, you may not use, copy or distribute this file. 
   VRHFIN =Co: d8 s1                                                                                
   LEXCH  = PE                                                                                      
   EATOM  =   813.3670 eV,   59.7808 Ry                                                             
                                                                                                    
   TITEL  = PAW_PBE Co 02Aug2007                                                                    
   LULTRA =        F    use ultrasoft PP ?                                                          
   IUNSCR =        1    unscreen: 0-lin 1-nonlin 2-no                                               
   RPACOR =    2.000    partial core radius                                                         
   POMASS =   58.933; ZVAL   =    9.000    mass and valenz                                          
   RCORE  =    2.300    outmost cutoff radius                                                       
   RWIGS  =    2.460; RWIGS  =    1.302    wigner-seitz radius (au A)                               
   ENMAX  =  267.968; ENMIN  =  200.976 eV                                                          
   RCLOC  =    1.203    cutoff for local pot                                                        
   LCOR   =        T    correct aug charges                                                         
   LPAW   =        T    paw PP                                                                      
   EAUG   =  477.818                                                                                
   DEXC   =    0.000                                                                                
   RMAX   =    2.360    core radius for proj-oper                                                   
   RAUG   =    1.300    factor for augmentation sphere                                              
   RDEP   =    2.393    radius for radial grids                                                     
   RDEPT  =    1.864    core radius for aug-charge                                                  
                                                                                                    
   Atomic configuration                                                                             
    9 entries                                                                                       
     n  l   j            E        occ.                                                              
     1  0  0.50     -7587.6674   2.0000                                                             
     2  0  0.50      -893.6084   2.0000                                                             
     2  1  1.50      -764.5805   6.0000                                                             
     3  0  0.50       -97.5973   2.0000                                                             
     3  1  1.50       -60.9648   6.0000                                                             
     3  2  2.50        -4.2382   8.0000                                                             
     4  0  0.50        -4.3746   1.0000                                                             
     4  1  1.50        -4.0817   0.0000                                                             
     4  3  2.50        -1.3606   0.0000                                                             
   Description                                                                                      
     l       E           TYP  RCUT    TYP  RCUT                                                     
     2     -4.2382362     23  2.300                                                                 
     2     -5.5988188     23  2.300                                                                 
     0     -4.3745797     23  2.300                                                                 
     0      5.7660125     23  2.300                                                                 
     1     -2.7211652     23  2.300                                                                 
     1     16.9860234     23  2.300                                                                 
  local pseudopotential read in
  partial core-charges read in
  partial kinetic energy density read in
  atomic valenz-charges read in
  non local Contribution for L=            2  read in
    real space projection operators read in
  non local Contribution for L=            2  read in
    real space projection operators read in
  non local Contribution for L=            0  read in
    real space projection operators read in
  non local Contribution for L=            0  read in
    real space projection operators read in
  non local Contribution for L=            1  read in
    real space projection operators read in
  non local Contribution for L=            1  read in
    real space projection operators read in
    PAW grid and wavefunctions read in
 
   number of l-projection  operators is LMAX  =            6
   number of lm-projection operators is LMMAX =           18
 
 -----------------------------------------------------------------------------
|                                                                             |
|               ----> ADVICE to this user running VASP <----                  |
|                                                                             |
|     You have a (more or less) 'small supercell' and for smaller cells       |
|     it is recommended to use the reciprocal-space projection scheme!        |
|     The real-space optimization is not efficient for small cells and it     |
|     is also less accurate ...                                               |
|     Therefore, set LREAL=.FALSE. in the INCAR file.                         |
|                                                                             |
 -----------------------------------------------------------------------------

 Optimization of the real space projectors (new method)

 maximal supplied QI-value         = 17.01
 optimisation between [QCUT,QGAM] = [ 11.57, 23.30] = [ 37.45,152.03] Ry 
 Optimized for a Real-space Cutoff    1.45 Angstroem

   l    n(q)    QCUT    max X(q) W(low)/X(q) W(high)/X(q)  e(spline) 
   1     10    11.565     4.267    0.91E-04    0.15E-03    0.13E-06
   1     10    11.565     5.750    0.14E-03    0.22E-03    0.20E-06
   2      9    11.565    53.656    0.13E-03    0.57E-04    0.16E-06
   2      9    11.565    49.521    0.13E-03    0.59E-04    0.16E-06
   0     10    11.565    31.246    0.61E-04    0.74E-05    0.89E-07
   0     10    11.565    12.201    0.44E-04    0.68E-05    0.74E-07
 Optimization of the real space projectors (new method)

 maximal supplied QI-value         = 16.25
 optimisation between [QCUT,QGAM] = [ 11.54, 23.24] = [ 37.28,151.24] Ry 
 Optimized for a Real-space Cutoff    1.45 Angstroem

   l    n(q)    QCUT    max X(q) W(low)/X(q) W(high)/X(q)  e(spline) 
   2      9    11.539    65.824    0.19E-03    0.47E-04    0.16E-06
   2      9    11.539    61.429    0.20E-03    0.48E-04    0.16E-06
   0     10    11.539    56.174    0.76E-04    0.45E-04    0.23E-06
   0     10    11.539    31.263    0.69E-04    0.41E-04    0.21E-06
   1     10    11.539    19.828    0.78E-04    0.14E-03    0.70E-07
   1     10    11.539    15.139    0.65E-04    0.12E-03    0.64E-07
  PAW_PBE Fe_pv 02Aug2007               :
 energy of atom  1       EATOM=-2457.4239
 kinetic energy error for atom=    0.0062 (will be added to EATOM!!)
  PAW_PBE Co 02Aug2007                  :
 energy of atom  2       EATOM= -813.3670
 kinetic energy error for atom=    0.0028 (will be added to EATOM!!)
 
 
 POSCAR: B2 FeCo volume scan, a = 2.857 A
  positions in direct lattice
  No initial velocities read in


 exchange-correlation table for PE
   RHO(1)=    0.500       N(1)  =     2000
   RHO(2)=  100.500       N(2)  =     4000
 


--------------------------------------------------------------------------------------------------------


 ion  position               nearest neighbor table
   1  0.000  0.000  0.000-   2 2.47   2 2.47   2 2.47   2 2.47   2 2.47   2 2.47   2 2.47   2 2.47

   2  0.500  0.500  0.500-   1 2.47   1 2.47   1 2.47   1 2.47   1 2.47   1 2.47   1 2.47   1 2.47

 
  LATTYP: Found a simple cubic cell.
 ALAT       =     2.8570000000
  
  Lattice vectors:
  
 A1 = (   2.8570000000,   0.0000000000,   0.0000000000)
 A2 = (   0.0000000000,   2.8570000000,   0.0000000000)
 A3 = (   0.0000000000,   0.0000000000,   2.8570000000)


Analysis of symmetry for initial positions (statically):
=====================================================================
 Subroutine PRICEL returns:
 Original cell was already a primitive cell.
 

 Routine SETGRP: Setting up the symmetry group for a 
 simple cubic supercell.


 Subroutine GETGRP returns: Found 48 space group operations
 (whereof 48 operations were pure point group operations)
 out of a pool of 48 trial point group operations.


The static configuration has the point symmetry O_h .


Analysis of symmetry for dynamics (positions and initial velocities):
=====================================================================
 Subroutine PRICEL returns:
 Original cell was already a primitive cell.
 

 Routine SETGRP: Setting up the symmetry group for a 
 simple cubic supercell.


 Subroutine GETGRP returns: Found 48 space group operations
 (whereof 48 operations were pure point group operations)
 out of a pool of 48 trial point group operations.


The dynamic configuration has the point symmetry O_h .


Analysis of structural, dynamic, and magnetic symmetry:
=====================================================================
 Subroutine PRICEL returns:
 Original cell was already a primitive cell.
 

 Routine SETGRP: Setting up the symmetry group for a 
 simple cubic supercell.


 Subroutine GETGRP returns: Found 48 space group operations
 (whereof 48 operations were pure point group operations)
 out of a pool of 48 trial point group operations.


The overall configuration has the point symmetry O_h .


 Subroutine INISYM returns: Found 48 space group operations
 (whereof 48 operations are pure point group operations),
 and found     1 'primitive' translations


----------------------------------------------------------------------------------------

                                     Primitive cell                                     

  volume of cell :      23.3201

  direct lattice vectors                    reciprocal lattice vectors
     2.857000000  0.000000000  0.000000000     0.350017501  0.000000000  0.000000000
     0.000000000  2.857000000  0.000000000     0.000000000  0.350017501  0.000000000
     0.000000000  0.000000000  2.857000000     0.000000000  0.000000000  0.350017501

  length of vectors
     2.857000000  2.857000000  2.857000000     0.350017501  0.350017501  0.350017501

  position of ions in fractional coordinates (direct lattice)
     0.000000000  0.000000000  0.000000000
     0.500000000  0.500000000  0.500000000

  ion indices of the primitive-cell ions
   primitive index   ion index
                 1           1
                 2           2

----------------------------------------------------------------------------------------

 
 
 KPOINTS: Automatic mesh                          

Automatic generation of k-mesh.
 Grid dimensions read from file:
 generate k-points for:   16   16   16

 Generating k-lattice:

  Cartesian coordinates                     Fractional coordinates (reciprocal lattice)
     0.021876094  0.000000000  0.000000000     0.062500000  0.000000000  0.000000000
     0.000000000  0.021876094  0.000000000     0.000000000  0.062500000  0.000000000
     0.000000000  0.000000000  0.021876094     0.000000000  0.000000000  0.062500000

  Length of vectors
     0.021876094  0.021876094  0.021876094

  Shift w.r.t. Gamma in fractional coordinates (k-lattice)
     0.500000000  0.500000000  0.500000000

 
 Subroutine IBZKPT returns following result:
 ===========================================
 
 Found    120 irreducible k-points:
 
 Following reciprocal coordinates:
            Coordinates               Weight
  0.031250  0.031250  0.031250      8.000000
  0.093750  0.031250  0.031250     24.000000
  0.156250  0.031250  0.031250     24.000000
  0.218750  0.031250  0.031250     24.000000
  0.281250  0.031250  0.031250     24.000000
  0.343750  0.031250  0.031250     24.000000
  0.406250  0.031250  0.031250     24.000000
  0.468750  0.031250  0.031250     24.000000
  0.093750  0.093750  0.031250     24.000000
  0.156250  0.093750  0.031250     48.000000
  0.218750  0.093750  0.031250     48.000000
  0.281250  0.093750  0.031250     48.000000
  0.343750  0.093750  0.031250     48.000000
  0.406250  0.093750  0.031250     48.000000
  0.468750  0.093750  0.031250     48.000000
  0.156250  0.156250  0.031250     24.000000
  0.218750  0.156250  0.031250     48.000000
  0.281250  0.156250  0.031250     48.000000
  0.343750  0.156250  0.031250     48.000000
  0.406250  0.156250  0.031250     48.000000
  0.468750  0.156250  0.031250     48.000000
  0.218750  0.218750  0.031250     24.000000
  0.281250  0.218750  0.031250     48.000000
  0.343750  0.218750  0.031250     48.000000
  0.406250  0.218750  0.031250     48.000000
  0.468750  0.218750  0.031250     48.000000
  0.281250  0.281250  0.031250     24.000000
  0.343750  0.281250  0.031250     48.000000
  0.406250  0.281250  0.031250     48.000000
  0.468750  0.281250  0.031250     48.000000
  0.343750  0.343750  0.031250     24.000000
  0.406250  0.343750  0.031250     48.000000
  0.468750  0.343750  0.031250     48.000000
  0.406250  0.406250  0.031250     24.000000
  0.468750  0.406250  0.031250     48.000000
  0.468750  0.468750  0.031250     24.000000
  0.093750  0.093750  0.093750      8.000000
  0.156250  0.093750  0.093750     24.000000
  0.218750  0.093750  0.093750     24.000000
  0.281250  0.093750  0.093750     24.000000
  0.343750  0.093750  0.093750     24.000000
  0.406250  0.093750  0.093750     24.000000
  0.468750  0.093750  0.093750     24.000000
  0.156250  0.156250  0.093750     24.000000
  0.218750  0.156250  0.093750     48.000000
  0.281250  0.156250  0.093750     48.000000
  0.343750  0.156250  0.093750     48.000000
  0.406250  0.156250  0.093750     48.000000
  0.468750  0.156250  0.093750     48.000000
  0.218750  0.218750  0.093750     24.000000
  0.281250  0.218750  0.093750     48.000000
  0.343750  0.218750  0.093750     48.000000
  0.406250  0.218750  0.093750     48.000000
  0.468750  0.218750  0.093750     48.000000
  0.281250  0.281250  0.093750     24.000000
  0.343750  0.281250  0.093750     48.000000
  0.406250  0.281250  0.093750     48.000000
  0.468750  0.281250  0.093750     48.000000
  0.343750  0.343750  0.093750     24.000000
  0.406250  0.343750  0.093750     48.000000
  0.468750  0.343750  0.093750     48.000000
  0.406250  0.406250  0.093750     24.000000
  0.468750  0.406250  0.093750     48.000000
  0.468750  0.468750  0.093750     24.000000
  0.156250  0.156250  0.156250      8.000000
  0.218750  0.156250  0.156250     24.000000
  0.281250  0.156250  0.156250     24.000000
  0.343750  0.156250  0.156250     24.000000
  0.406250  0.156250  0.156250     24.000000
  0.468750  0.156250  0.156250     24.000000
  0.218750  0.218750  0.156250     24.000000
  0.281250  0.218750  0.156250     48.000000
  0.343750  0.218750  0.156250     48.000000
  0.406250  0.218750  0.156250     48.000000
  0.468750  0.218750  0.156250     48.000000
  0.281250  0.281250  0.156250     24.000000
  0.343750  0.281250  0.156250     48.000000
  0.406250  0.281250  0.156250     48.000000
  0.468750  0.281250  0.156250     48.000000
  0.343750  0.343750  0.156250     24.000000
  0.406250  0.343750  0.156250     48.000000
  0.468750  0.343750  0.156250     48.000000
  0.406250  0.406250  0.156250     24.000000
  0.468750  0.406250  0.156250     48.000000
  0.468750  0.468750  0.156250     24.000000
  0.218750  0.218750  0.218750      8.000000
  0.281250  0.218750  0.218750     24.000000
  0.343750  0.218750  0.218750     24.000000
  0.406250  0.218750  0.218750     24.000000
  0.468750  0.218750  0.218750     24.000000
  0.281250  0.281250  0.218750     24.000000
  0.343750  0.281250  0.218750     48.000000
  0.406250  0.281250  0.218750     48.000000
  0.468750  0.281250  0.218750     48.000000
  0.343750  0.343750  0.218750     24.000000
  0.406250  0.343750  0.218750     48.000000
  0.468750  0.343750  0.218750     48.000000
  0.406250  0.406250  0.218750     24.000000
  0.468750  0.406250  0.218750     48.000000
  0.468750  0.468750  0.218750     24.000000
  0.281250  0.281250  0.281250      8.000000
  0.343750  0.281250  0.281250     24.000000
  0.406250  0.281250  0.281250     24.000000
  0.468750  0.281250  0.281250     24.000000
  0.343750  0.343750  0.281250     24.000000
  0.406250  0.343750  0.281250     48.000000
  0.468750  0.343750  0.281250     48.000000
  0.406250  0.406250  0.281250     24.000000
  0.468750  0.406250  0.281250     48.000000
  0.468750  0.468750  0.281250     24.000000
  0.343750  0.343750  0.343750      8.000000
  0.406250  0.343750  0.343750     24.000000
  0.468750  0.343750  0.343750     24.000000
  0.406250  0.406250  0.343750     24.000000
  0.468750  0.406250  0.343750     48.000000
  0.468750  0.468750  0.343750     24.000000
  0.406250  0.406250  0.406250      8.000000
  0.468750  0.406250  0.406250     24.000000
  0.468750  0.468750  0.406250     24.000000
  0.468750  0.468750  0.468750      8.000000
 
 Following cartesian coordinates:
            Coordinates               Weight
  0.010938  0.010938  0.010938      8.000000
  0.032814  0.010938  0.010938     24.000000
  0.054690  0.010938  0.010938     24.000000
  0.076566  0.010938  0.010938     24.000000
  0.098442  0.010938  0.010938     24.000000
  0.120319  0.010938  0.010938     24.000000
  0.142195  0.010938  0.010938     24.000000
  0.164071  0.010938  0.010938     24.000000
  0.032814  0.032814  0.010938     24.000000
  0.054690  0.032814  0.010938     48.000000
  0.076566  0.032814  0.010938     48.000000
  0.098442  0.032814  0.010938     48.000000
  0.120319  0.032814  0.010938     48.000000
  0.142195  0.032814  0.010938     48.000000
  0.164071  0.032814  0.010938     48.000000
  0.054690  0.054690  0.010938     24.000000
  0.076566  0.054690  0.010938     48.000000
  0.098442  0.054690  0.010938     48.000000
  0.120319  0.054690  0.010938     48.000000
  0.142195  0.054690  0.010938     48.000000
  0.164071  0.054690  0.010938     48.000000
  0.076566  0.076566  0.010938     24.000000
  0.098442  0.076566  0.010938     48.000000
  0.120319  0.076566  0.010938     48.000000
  0.142195  0.076566  0.010938     48.000000
  0.164071  0.076566  0.010938     48.000000
  0.098442  0.098442  0.010938     24.000000
  0.120319  0.098442  0.010938     48.000000
  0.142195  0.098442  0.010938     48.000000
  0.164071  0.098442  0.010938     48.000000
  0.120319  0.120319  0.010938     24.000000
  0.142195  0.120319  0.010938     48.000000
  0.164071  0.120319  0.010938     48.000000
  0.142195  0.142195  0.010938     24.000000
  0.164071  0.142195  0.010938     48.000000
  0.164071  0.164071  0.010938     24.000000
  0.032814  0.032814  0.032814      8.000000
  0.054690  0.032814  0.032814     24.000000
  0.076566  0.032814  0.032814     24.000000
  0.098442  0.032814  0.032814     24.000000
  0.120319  0.032814  0.032814     24.000000
  0.142195  0.032814  0.032814     24.000000
  0.164071  0.032814  0.032814     24.000000
  0.054690  0.054690  0.032814     24.000000
  0.076566  0.054690  0.032814     48.000000
  0.098442  0.054690  0.032814     48.000000
  0.120319  0.054690  0.032814     48.000000
  0.142195  0.054690  0.032814     48.000000
  0.164071  0.054690  0.032814     48.000000
  0.076566  0.076566  0.032814     24.000000
  0.098442  0.076566  0.032814     48.000000
  0.120319  0.076566  0.032814     48.000000
  0.142195  0.076566  0.032814     48.000000
  0.164071  0.076566  0.032814     48.000000
  0.098442  0.098442  0.032814     24.000000
  0.120319  0.098442  0.032814     48.000000
  0.142195  0.098442  0.032814     48.000000
  0.164071  0.098442  0.032814     48.000000
  0.120319  0.120319  0.032814     24.000000
  0.142195  0.120319  0.032814     48.000000
  0.164071  0.120319  0.032814     48.000000
  0.142195  0.142195  0.032814     24.000000
  0.164071  0.142195  0.032814     48.000000
  0.164071  0.164071  0.032814     24.000000
  0.054690  0.054690  0.054690      8.000000
  0.076566  0.054690  0.054690     24.000000
  0.098442  0.054690  0.054690     24.000000
  0.120319  0.054690  0.054690     24.000000
  0.142195  0.054690  0.054690     24.000000
  0.164071  0.054690  0.054690     24.000000
  0.076566  0.076566  0.054690     24.000000
  0.098442  0.076566  0.054690     48.000000
  0.120319  0.076566  0.054690     48.000000
  0.142195  0.076566  0.054690     48.000000
  0.164071  0.076566  0.054690     48.000000
  0.098442  0.098442  0.054690     24.000000
  0.120319  0.098442  0.054690     48.000000
  0.142195  0.098442  0.054690     48.000000
  0.164071  0.098442  0.054690     48.000000
  0.120319  0.120319  0.054690     24.000000
  0.142195  0.120319  0.054690     48.000000
  0.164071  0.120319  0.054690     48.000000
  0.142195  0.142195  0.054690     24.000000
  0.164071  0.142195  0.054690     48.000000
  0.164071  0.164071  0.054690     24.000000
  0.076566  0.076566  0.076566      8.000000
  0.098442  0.076566  0.076566     24.000000
  0.120319  0.076566  0.076566     24.000000
  0.142195  0.076566  0.076566     24.000000
  0.164071  0.076566  0.076566     24.000000
  0.098442  0.098442  0.076566     24.000000
  0.120319  0.098442  0.076566     48.000000
  0.142195  0.098442  0.076566     48.000000
  0.164071  0.098442  0.076566     48.000000
  0.120319  0.120319  0.076566     24.000000
  0.142195  0.120319  0.076566     48.000000
  0.164071  0.120319  0.076566     48.000000
  0.142195  0.142195  0.076566     24.000000
  0.164071  0.142195  0.076566     48.000000
  0.164071  0.164071  0.076566     24.000000
  0.098442  0.098442  0.098442      8.000000
  0.120319  0.098442  0.098442     24.000000
  0.142195  0.098442  0.098442     24.000000
  0.164071  0.098442  0.098442     24.000000
  0.120319  0.120319  0.098442     24.000000
  0.142195  0.120319  0.098442     48.000000
  0.164071  0.120319  0.098442     48.000000
  0.142195  0.142195  0.098442     24.000000
  0.164071  0.142195  0.098442     48.000000
  0.164071  0.164071  0.098442     24.000000
  0.120319  0.120319  0.120319      8.000000
  0.142195  0.120319  0.120319     24.000000
  0.164071  0.120319  0.120319     24.000000
  0.142195  0.142195  0.120319     24.000000
  0.164071  0.142195  0.120319     48.000000
  0.164071  0.164071  0.120319     24.000000
  0.142195  0.142195  0.142195      8.000000
  0.164071  0.142195  0.142195     24.000000
  0.164071  0.164071  0.142195     24.000000
  0.164071  0.164071  0.164071      8.000000
 


--------------------------------------------------------------------------------------------------------




 Dimension of arrays:
   k-points           NKPTS =    120   k-points in BZ     NKDIM =    120   number of bands    NBANDS=     17
   number of dos      NEDOS =    301   number of ions     NIONS =      2
   non local maximal  LDIM  =      6   non local SUM 2l+1 LMDIM =     18
   total plane-waves  NPLWV =  13824
   max r-space proj   IRMAX =   7553   max aug-charges    IRDMAX= 187210
   dimension x,y,z NGX =    24 NGY =   24 NGZ =   24
   dimension x,y,z NGXF=    48 NGYF=   48 NGZF=   48
   support grid    NGXF=    96 NGYF=   96 NGZF=   96
   ions per type =               1   1
   NGX,Y,Z   is equivalent  to a cutoff of  13.97, 13.97, 13.97 a.u.
   NGXF,Y,Z  is equivalent  to a cutoff of  27.93, 27.93, 27.93 a.u.

 SYSTEM =  SCF                                     
 POSCAR =  B2 FeCo volume scan, a = 2.857 A        

 Startparameter for this run:
   NWRITE =      2    write-flag & timer
   PREC   = accura    normal or accurate (medium, high low for compatibility)
   ISTART =      0    job   : 0-new  1-cont  2-samecut
   ICHARG =      2    charge: 1-file 2-atom 10-const
   ISPIN  =      2    spin polarized calculation?
   LNONCOLLINEAR =      F non collinear calculations
   LSORBIT =      F    spin-orbit coupling
   INIWAV =      1    electr: 0-lowe 1-rand  2-diag
   LASPH  =      T    aspherical Exc in radial PAW
 Electronic Relaxation 1
   ENCUT  =  520.0 eV  38.22 Ry    6.18 a.u.   5.31  5.31  5.31*2*pi/ulx,y,z
   ENINI  =  520.0     initial cutoff
   ENAUG  =  578.3 eV  augmentation charge cutoff
   NELM   =    120;   NELMIN=  2; NELMDL=  0     # of ELM steps 
   EDIFF  = 0.1E-05   stopping-criterion for ELM
   LREAL  =      T    real-space projection
   NLSPLINE    = F    spline interpolate recip. space projectors
   LCOMPAT=      F    compatible to vasp.4.4
   GGA_COMPAT  = T    GGA compatible to vasp.4.4-vasp.4.6
   LMAXPAW     = -100 max onsite density
   LMAXMIX     =    4 max onsite mixed and CHGCAR
   VOSKOWN=      0    Vosko Wilk Nusair interpolation
   ROPT   =   -0.00025  -0.00025
 Ionic relaxation
   EDIFFG = 0.1E-04   stopping-criterion for IOM
   NSW    =      0    number of steps for IOM
   NBLOCK =      1;   KBLOCK =      1    inner block; outer block 
   IBRION =     -1    ionic relax: 0-MD 1-quasi-New 2-CG
   NFREE  =      0    steps in history (QN), initial steepest desc. (CG)
   ISIF   =      2    stress and relaxation
   IWAVPR =     10    prediction:  0-non 1-charg 2-wave 3-comb
   ISYM   =      2    0-nonsym 1-usesym 2-fastsym
   LCORR  =      T    Harris-Foulkes like correction to forces

   POTIM  = 0.5000    time-step for ionic-motion
   TEIN   =    0.0    initial temperature
   TEBEG  =    0.0;   TEEND  =   0.0 temperature during run
   SMASS  =  -3.00    Nose mass-parameter (am)
   estimated Nose-frequenzy (Omega)   =  0.10E-29 period in steps = 0.13E+47 mass=  -0.187E-27a.u.
   SCALEE = 1.0000    scale energy and forces
   NPACO  =    256;   APACO  = 10.0  distance and # of slots for P.C.
   PSTRESS=    0.0 pullay stress

  Mass of Ions in am
   POMASS =  55.85 58.93
  Ionic Valenz
   ZVAL   =  14.00  9.00
  Atomic Wigner-Seitz radii
   RWIGS  =  -1.00 -1.00
  virtual crystal weights 
   VCA    =   1.00  1.00
   NELECT =      23.0000    total number of electrons
   NUPDOWN=      -1.0000    fix difference up-down

 DOS related values:
   EMIN   =  10.00;   EMAX   =-10.00  energy-range for DOS
   EFERMI =   0.00;   METHOD = LEGACY      
   ISMEAR =     1;   SIGMA  =   0.10  broadening in eV -4-tet -1-fermi 0-gaus
   EFERMI_NEDOS =   21; number of points for ismear=-14 and -15

 Electronic relaxation 2 (details)
   IALGO  =     38    algorithm
   LDIAG  =      T    sub-space diagonalisation (order eigenvalues)
   LSUBROT=      F    optimize rotation matrix (better conditioning)
   LROBUST=      F    robust break criterion during scf (extrapolated energy error)
   ISEARCH=      0    line search for conjugate gradient (0, 1=use gradient)
   TURBO    =      0    0=normal 1=particle mesh
   IRESTART =      0    0=no restart 2=restart with 2 vectors
   NREBOOT  =      0    no. of reboots
   NMIN     =      0    reboot dimension
   EREF     =   0.00    reference energy to select bands
   IMIX   =      4    mixing-type and parameters
     AMIX     =   0.40;   BMIX     =  1.00
     AMIX_MAG =   1.60;   BMIX_MAG =  1.00
     AMIN     =   0.10
     WC   =   100.;   INIMIX=   1;  MIXPRE=   1;  MAXMIX= -45

 Intra band minimization:
   WEIMIN = 0.0000     energy-eigenvalue tresh-hold
   EBREAK =  0.15E-07  absolut break condition
   DEPER  =   0.30     relativ break condition  

   TIME   =   0.40     timestep for ELM

  volume/ion in A,a.u.               =      11.66        78.69
  Fermi-wavevector in a.u.,A,eV,Ry     =   1.629573  3.079447 36.130390  2.655509
  Thomas-Fermi vector in A             =   2.722017
 
 Write flags
   LWAVE        =      F    write WAVECAR
   LDOWNSAMPLE  =      F    k-point downsampling of WAVECAR
   LCHARG       =      T    write CHGCAR
   LVTOT        =      F    write LOCPOT, total local potential
   LVHAR        =      F    write LOCPOT, Hartree potential only
   WRT_POTENTIAL= false  ! write potential to hdf5 file
   LELF         =      F    write electronic localiz. function (ELF)
   LORBIT       =      0    0 simple, 1 ext, 2 COOP (PROOUT), +10 PAW based schemes


 Python interface
   PLUGINS active      =      F    recompile with -DPLUGINS to activate
 
 Dipole corrections
   LMONO      =      F    monopole corrections only (constant potential shift)
   LDIPOL     =      F    correct potential (dipole corrections)
   IDIPOL     =      0    1-x, 2-y, 3-z, 4-all directions 
   EPSILON    =  1.0000000 bulk dielectric constant
   LVACPOTAV  =      F  vacuum potentials using an averaging scheme for the charge density
   VACPOTFLAT =  0.1000000 required flatness to determine vacuum potential
 
Coulomb truncation method
  LTRUNCATE          =      F  Coulomb kernel truncation to be used

 
 Exchange correlation treatment:
   GGA     = PE    functional components
   XC_C    = 1    coefficients multiplying the functional components
   LIBXC   =     F    Libxc                    
   VOSKOWN =     0    Vosko Wilk Nusair interpolation
   LHFCALC =     F    Hartree Fock is set to
   LHFONE  =     F    Hartree Fock one center treatment
   AEXX    =    0.0000 exact exchange contribution

 Parameters of functionals:
   PE:
     No parameter
 
 Van der Waals corrections
   IVDW    =     0    specifies the selected vdW correction

 Linear response parameters
   LEPSILON=     F    determine dielectric tensor
   LRPA    =     F    only Hartree local field effects (RPA)
   LNABLA  =     F    use nabla operator in PAW spheres
   LVEL    =     F    velocity operator in full k-point grid
   CSHIFT  =0.1000    complex shift for real part using Kramers Kronig
   OMEGAMAX=  -1.0    maximum frequency
   DEG_THRESHOLD= 0.2000000E-02 threshold for treating states as degnerate
   RTIME   =   -0.100 relaxation time in fs
  (WPLASMAI=    0.000 imaginary part of plasma frequency in eV, 0.658/RTIME)
   DFIELD  = 0.0000000 0.0000000 0.0000000 field for delta impulse in time
 
  Optional k-point grid parameters
   LKPOINTS_OPT  =     F    use optional k-point grid
   KPOINTS_OPT_MODE=     1    mode for optional k-point grid
 
 Orbital magnetization related:
   ORBITALMAG=     F  switch on orbital magnetization
   LCHIMAG   =     F  perturbation theory with respect to B field
   DQ        =  0.001000  dq finite difference perturbation B field
   LLRAUG    =     F  two centre corrections for induced B field
   LBONE     =     F  B-component reconstruction in AE one-centre
   LVGVCALC  =     T  calculate vGv susceptibility
   LVGVAPPL  =     F  apply vGv susceptibility instead of pGv for G=0

 Random number generation:
   RANDOM_GENERATOR = DEFAULT
   PCG_SEED         = not used


--------------------------------------------------------------------------------------------------------


 Static calculation
 charge density and potential will be updated during run
 spin polarized calculation
 Variant of blocked Davidson
 Davidson routine will perform the subspace rotation
 perform sub-space diagonalisation
    after iterative eigenvector-optimisation
 modified Broyden-mixing scheme, WC =      100.0
 initial mixing is a Kerker type mixing with AMIX =  0.4000 and BMIX =      1.0000
 Hartree-type preconditioning will be used
 using additional bands             5
 real space projection scheme for non local part
 use partial core corrections
 calculate Harris-corrections to forces 
   (improved forces if not selfconsistent)
 use gradient corrections 
 use of overlap-Matrix (Vanderbilt PP)
 Methfessel and Paxton  Order N= 1 SIGMA  =   0.10


--------------------------------------------------------------------------------------------------------


  energy-cutoff  :      520.00
  volume of cell :       23.32
      direct lattice vectors                 reciprocal lattice vectors
     2.857000000  0.000000000  0.000000000     0.350017501  0.000000000  0.000000000
     0.000000000  2.857000000  0.000000000     0.000000000  0.350017501  0.000000000
     0.000000000  0.000000000  2.857000000     0.000000000  0.000000000  0.350017501

  length of vectors
     2.857000000  2.857000000  2.857000000     0.350017501  0.350017501  0.350017501


 
 k-points in units of 2pi/SCALE and weight: Automatic mesh                          
   0.01093805  0.01093805  0.01093805       0.002
   0.03281414  0.01093805  0.01093805       0.006
   0.05469023  0.01093805  0.01093805       0.006
   0.07656633  0.01093805  0.01093805       0.006
   0.09844242  0.01093805  0.01093805       0.006
   0.12031852  0.01093805  0.01093805       0.006
   0.14219461  0.01093805  0.01093805       0.006
   0.16407070  0.01093805  0.01093805       0.006
   0.03281414  0.03281414  0.01093805       0.006
   0.05469023  0.03281414  0.01093805       0.012
   0.07656633  0.03281414  0.01093805       0.012
   0.09844242  0.03281414  0.01093805       0.012
   0.12031852  0.03281414  0.01093805       0.012
   0.14219461  0.03281414  0.01093805       0.012
   0.16407070  0.03281414  0.01093805       0.012
   0.05469023  0.05469023  0.01093805       0.006
   0.07656633  0.05469023  0.01093805       0.012
   0.09844242  0.05469023  0.01093805       0.012
   0.12031852  0.05469023  0.01093805       0.012
   0.14219461  0.05469023  0.01093805       0.012
   0.16407070  0.05469023  0.01093805       0.012
   0.07656633  0.07656633  0.01093805       0.006
   0.09844242  0.07656633  0.01093805       0.012
   0.12031852  0.07656633  0.01093805       0.012
   0.14219461  0.07656633  0.01093805       0.012
   0.16407070  0.07656633  0.01093805       0.012
   0.09844242  0.09844242  0.01093805       0.006
   0.12031852  0.09844242  0.01093805       0.012
   0.14219461  0.09844242  0.01093805       0.012
   0.16407070  0.09844242  0.01093805       0.012
   0.12031852  0.12031852  0.01093805       0.006
   0.14219461  0.12031852  0.01093805       0.012
   0.16407070  0.12031852  0.01093805       0.012
   0.14219461  0.14219461  0.01093805       0.006
   0.16407070  0.14219461  0.01093805       0.012
   0.16407070  0.16407070  0.01093805       0.006
   0.03281414  0.03281414  0.03281414       0.002
   0.05469023  0.03281414  0.03281414       0.006
   0.07656633  0.03281414  0.03281414       0.006
   0.09844242  0.03281414  0.03281414       0.006
   0.12031852  0.03281414  0.03281414       0.006
   0.14219461  0.03281414  0.03281414       0.006
   0.16407070  0.03281414  0.03281414       0.006
   0.05469023  0.05469023  0.03281414       0.006
   0.07656633  0.05469023  0.03281414       0.012
   0.09844242  0.05469023  0.03281414       0.012
   0.12031852  0.05469023  0.03281414       0.012
   0.14219461  0.05469023  0.03281414       0.012
   0.16407070  0.05469023  0.03281414       0.012
   0.07656633  0.07656633  0.03281414       0.006
   0.09844242  0.07656633  0.03281414       0.012
   0.12031852  0.07656633  0.03281414       0.012
   0.14219461  0.07656633  0.03281414       0.012
   0.16407070  0.07656633  0.03281414       0.012
   0.09844242  0.09844242  0.03281414       0.006
   0.12031852  0.09844242  0.03281414       0.012
   0.14219461  0.09844242  0.03281414       0.012
   0.16407070  0.09844242  0.03281414       0.012
   0.12031852  0.12031852  0.03281414       0.006
   0.14219461  0.12031852  0.03281414       0.012
   0.16407070  0.12031852  0.03281414       0.012
   0.14219461  0.14219461  0.03281414       0.006
   0.16407070  0.14219461  0.03281414       0.012
   0.16407070  0.16407070  0.03281414       0.006
   0.05469023  0.05469023  0.05469023       0.002
   0.07656633  0.05469023  0.05469023       0.006
   0.09844242  0.05469023  0.05469023       0.006
   0.12031852  0.05469023  0.05469023       0.006
   0.14219461  0.05469023  0.05469023       0.006
   0.16407070  0.05469023  0.05469023       0.006
   0.07656633  0.07656633  0.05469023       0.006
   0.09844242  0.07656633  0.05469023       0.012
   0.12031852  0.07656633  0.05469023       0.012
   0.14219461  0.07656633  0.05469023       0.012
   0.16407070  0.07656633  0.05469023       0.012
   0.09844242  0.09844242  0.05469023       0.006
   0.12031852  0.09844242  0.05469023       0.012
   0.14219461  0.09844242  0.05469023       0.012
   0.16407070  0.09844242  0.05469023       0.012
   0.12031852  0.12031852  0.05469023       0.006
   0.14219461  0.12031852  0.05469023       0.012
   0.16407070  0.12031852  0.05469023       0.012
   0.14219461  0.14219461  0.05469023       0.006
   0.16407070  0.14219461  0.05469023       0.012
   0.16407070  0.16407070  0.05469023       0.006
   0.07656633  0.07656633  0.07656633       0.002
   0.09844242  0.07656633  0.07656633       0.006
   0.12031852  0.07656633  0.07656633       0.006
   0.14219461  0.07656633  0.07656633       0.006
   0.16407070  0.07656633  0.07656633       0.006
   0.09844242  0.09844242  0.07656633       0.006
   0.12031852  0.09844242  0.07656633       0.012
   0.14219461  0.09844242  0.07656633       0.012
   0.16407070  0.09844242  0.07656633       0.012
   0.12031852  0.12031852  0.07656633       0.006
   0.14219461  0.12031852  0.07656633       0.012
   0.16407070  0.12031852  0.07656633       0.012
   0.14219461  0.14219461  0.07656633       0.006
   0.16407070  0.14219461  0.07656633       0.012
   0.16407070  0.16407070  0.07656633       0.006
   0.09844242  0.09844242  0.09844242       0.002
   0.12031852  0.09844242  0.09844242       0.006
   0.14219461  0.09844242  0.09844242       0.006
   0.16407070  0.09844242  0.09844242       0.006
   0.12031852  0.12031852  0.09844242       0.006
   0.14219461  0.12031852  0.09844242       0.012
   0.16407070  0.12031852  0.09844242       0.012
   0.14219461  0.14219461  0.09844242       0.006
   0.16407070  0.14219461  0.09844242       0.012
   0.16407070  0.16407070  0.09844242       0.006
   0.12031852  0.12031852  0.12031852       0.002
   0.14219461  0.12031852  0.12031852       0.006
   0.16407070  0.12031852  0.12031852       0.006
   0.14219461  0.14219461  0.12031852       0.006
   0.16407070  0.14219461  0.12031852       0.012
   0.16407070  0.16407070  0.12031852       0.006
   0.14219461  0.14219461  0.14219461       0.002
   0.16407070  0.14219461  0.14219461       0.006
   0.16407070  0.16407070  0.14219461       0.006
   0.16407070  0.16407070  0.16407070       0.002
 
 k-points in reciprocal lattice and weights: Automatic mesh                          
   0.03125000  0.03125000  0.03125000       0.002
   0.09375000  0.03125000  0.03125000       0.006
   0.15625000  0.03125000  0.03125000       0.006
   0.21875000  0.03125000  0.03125000       0.006
   0.28125000  0.03125000  0.03125000       0.006
   0.34375000  0.03125000  0.03125000       0.006
   0.40625000  0.03125000  0.03125000       0.006
   0.46875000  0.03125000  0.03125000       0.006
   0.09375000  0.09375000  0.03125000       0.006
   0.15625000  0.09375000  0.03125000       0.012
   0.21875000  0.09375000  0.03125000       0.012
   0.28125000  0.09375000  0.03125000       0.012
   0.34375000  0.09375000  0.03125000       0.012
   0.40625000  0.09375000  0.03125000       0.012
   0.46875000  0.09375000  0.03125000       0.012
   0.15625000  0.15625000  0.03125000       0.006
   0.21875000  0.15625000  0.03125000       0.012
   0.28125000  0.15625000  0.03125000       0.012
   0.34375000  0.15625000  0.03125000       0.012
   0.40625000  0.15625000  0.03125000       0.012
   0.46875000  0.15625000  0.03125000       0.012
   0.21875000  0.21875000  0.03125000       0.006
   0.28125000  0.21875000  0.03125000       0.012
   0.34375000  0.21875000  0.03125000       0.012
   0.40625000  0.21875000  0.03125000       0.012
   0.46875000  0.21875000  0.03125000       0.012
   0.28125000  0.28125000  0.03125000       0.006
   0.34375000  0.28125000  0.03125000       0.012
   0.40625000  0.28125000  0.03125000       0.012
   0.46875000  0.28125000  0.03125000       0.012
   0.34375000  0.34375000  0.03125000       0.006
   0.40625000  0.34375000  0.03125000       0.012
   0.46875000  0.34375000  0.03125000       0.012
   0.40625000  0.40625000  0.03125000       0.006
   0.46875000  0.40625000  0.03125000       0.012
   0.46875000  0.46875000  0.03125000       0.006
   0.09375000  0.09375000  0.09375000       0.002
   0.15625000  0.09375000  0.09375000       0.006
   0.21875000  0.09375000  0.09375000       0.006
   0.28125000  0.09375000  0.09375000       0.006
   0.34375000  0.09375000  0.09375000       0.006
   0.40625000  0.09375000  0.09375000       0.006
   0.46875000  0.09375000  0.09375000       0.006
   0.15625000  0.15625000  0.09375000       0.006
   0.21875000  0.15625000  0.09375000       0.012
   0.28125000  0.15625000  0.09375000       0.012
   0.34375000  0.15625000  0.09375000       0.012
   0.40625000  0.15625000  0.09375000       0.012
   0.46875000  0.15625000  0.09375000       0.012
   0.21875000  0.21875000  0.09375000       0.006
   0.28125000  0.21875000  0.09375000       0.012
   0.34375000  0.21875000  0.09375000       0.012
   0.40625000  0.21875000  0.09375000       0.012
   0.46875000  0.21875000  0.09375000       0.012
   0.28125000  0.28125000  0.09375000       0.006
   0.34375000  0.28125000  0.09375000       0.012
   0.40625000  0.28125000  0.09375000       0.012
   0.46875000  0.28125000  0.09375000       0.012
   0.34375000  0.34375000  0.09375000       0.006
   0.40625000  0.34375000  0.09375000       0.012
   0.46875000  0.34375000  0.09375000       0.012
   0.40625000  0.40625000  0.09375000       0.006
   0.46875000  0.40625000  0.09375000       0.012
   0.46875000  0.46875000  0.09375000       0.006
   0.15625000  0.15625000  0.15625000       0.002
   0.21875000  0.15625000  0.15625000       0.006
   0.28125000  0.15625000  0.15625000       0.006
   0.34375000  0.15625000  0.15625000       0.006
   0.40625000  0.15625000  0.15625000       0.006
   0.46875000  0.15625000  0.15625000       0.006
   0.21875000  0.21875000  0.15625000       0.006
   0.28125000  0.21875000  0.15625000       0.012
   0.34375000  0.21875000  0.15625000       0.012
   0.40625000  0.21875000  0.15625000       0.012
   0.46875000  0.21875000  0.15625000       0.012
   0.28125000  0.28125000  0.15625000       0.006
   0.34375000  0.28125000  0.15625000       0.012
   0.40625000  0.28125000  0.15625000       0.012
   0.46875000  0.28125000  0.15625000       0.012
   0.34375000  0.34375000  0.15625000       0.006
   0.40625000  0.34375000  0.15625000       0.012
   0.46875000  0.34375000  0.15625000       0.012
   0.40625000  0.40625000  0.15625000       0.006
   0.46875000  0.40625000  0.15625000       0.012
   0.46875000  0.46875000  0.15625000       0.006
   0.21875000  0.21875000  0.21875000       0.002
   0.28125000  0.21875000  0.21875000       0.006
   0.34375000  0.21875000  0.21875000       0.006
   0.40625000  0.21875000  0.21875000       0.006
   0.46875000  0.21875000  0.21875000       0.006
   0.28125000  0.28125000  0.21875000       0.006
   0.34375000  0.28125000  0.21875000       0.012
   0.40625000  0.28125000  0.21875000       0.012
   0.46875000  0.28125000  0.21875000       0.012
   0.34375000  0.34375000  0.21875000       0.006
   0.40625000  0.34375000  0.21875000       0.012
   0.46875000  0.34375000  0.21875000       0.012
   0.40625000  0.40625000  0.21875000       0.006
   0.46875000  0.40625000  0.21875000       0.012
   0.46875000  0.46875000  0.21875000       0.006
   0.28125000  0.28125000  0.28125000       0.002
   0.34375000  0.28125000  0.28125000       0.006
   0.40625000  0.28125000  0.28125000       0.006
   0.46875000  0.28125000  0.28125000       0.006
   0.34375000  0.34375000  0.28125000       0.006
   0.40625000  0.34375000  0.28125000       0.012
   0.46875000  0.34375000  0.28125000       0.012
   0.40625000  0.40625000  0.28125000       0.006
   0.46875000  0.40625000  0.28125000       0.012
   0.46875000  0.46875000  0.28125000       0.006
   0.34375000  0.34375000  0.34375000       0.002
   0.40625000  0.34375000  0.34375000       0.006
   0.46875000  0.34375000  0.34375000       0.006
   0.40625000  0.40625000  0.34375000       0.006
   0.46875000  0.40625000  0.34375000       0.012
   0.46875000  0.46875000  0.34375000       0.006
   0.40625000  0.40625000  0.40625000       0.002
   0.46875000  0.40625000  0.40625000       0.006
   0.46875000  0.46875000  0.40625000       0.006
   0.46875000  0.46875000  0.46875000       0.002
 
 position of ions in fractional coordinates (direct lattice) 
   0.00000000  0.00000000  0.00000000
   0.50000000  0.50000000  0.50000000
 
 position of ions in cartesian coordinates  (Angst):
   0.00000000  0.00000000  0.00000000
   1.42850000  1.42850000  1.42850000
 


--------------------------------------------------------------------------------------------------------


 k-point     1 :   0.0313 0.0313 0.0313  plane waves:     619
 k-point     2 :   0.0938 0.0313 0.0313  plane waves:     631
 k-point     3 :   0.1563 0.0313 0.0313  plane waves:     636
 k-point     4 :   0.2188 0.0313 0.0313  plane waves:     644
 k-point     5 :   0.2813 0.0313 0.0313  plane waves:     639
 k-point     6 :   0.3438 0.0313 0.0313  plane waves:     634
 k-point     7 :   0.4063 0.0313 0.0313  plane waves:     624
 k-point     8 :   0.4688 0.0313 0.0313  plane waves:     623
 k-point     9 :   0.0938 0.0938 0.0313  plane waves:     634
 k-point    10 :   0.1563 0.0938 0.0313  plane waves:     634
 k-point    11 :   0.2188 0.0938 0.0313  plane waves:     639
 k-point    12 :   0.2813 0.0938 0.0313  plane waves:     635
 k-point    13 :   0.3438 0.0938 0.0313  plane waves:     629
 k-point    14 :   0.4063 0.0938 0.0313  plane waves:     628
 k-point    15 :   0.4688 0.0938 0.0313  plane waves:     622
 k-point    16 :   0.1563 0.1563 0.0313  plane waves:     635
 k-point    17 :   0.2188 0.1563 0.0313  plane waves:     637
 k-point    18 :   0.2813 0.1563 0.0313  plane waves:     634
 k-point    19 :   0.3438 0.1563 0.0313  plane waves:     633
 k-point    20 :   0.4063 0.1563 0.0313  plane waves:     627
 k-point    21 :   0.4688 0.1563 0.0313  plane waves:     625
 k-point    22 :   0.2188 0.2188 0.0313  plane waves:     628
 k-point    23 :   0.2813 0.2188 0.0313  plane waves:     627
 k-point    24 :   0.3438 0.2188 0.0313  plane waves:     626
 k-point    25 :   0.4063 0.2188 0.0313  plane waves:     625
 k-point    26 :   0.4688 0.2188 0.0313  plane waves:     620
 k-point    27 :   0.2813 0.2813 0.0313  plane waves:     627
 k-point    28 :   0.3438 0.2813 0.0313  plane waves:     630
 k-point    29 :   0.4063 0.2813 0.0313  plane waves:     625
 k-point    30 :   0.4688 0.2813 0.0313  plane waves:     619
 k-point    31 :   0.3438 0.3438 0.0313  plane waves:     624
 k-point    32 :   0.4063 0.3438 0.0313  plane waves:     623
 k-point    33 :   0.4688 0.3438 0.0313  plane waves:     625
 k-point    34 :   0.4063 0.4063 0.0313  plane waves:     628
 k-point    35 :   0.4688 0.4063 0.0313  plane waves:     631
 k-point    36 :   0.4688 0.4688 0.0313  plane waves:     631
 k-point    37 :   0.0938 0.0938 0.0938  plane waves:     633
 k-point    38 :   0.1563 0.0938 0.0938  plane waves:     634
 k-point    39 :   0.2188 0.0938 0.0938  plane waves:     634
 k-point    40 :   0.2813 0.0938 0.0938  plane waves:     634
 k-point    41 :   0.3438 0.0938 0.0938  plane waves:     635
 k-point    42 :   0.4063 0.0938 0.0938  plane waves:     630
 k-point    43 :   0.4688 0.0938 0.0938  plane waves:     626
 k-point    44 :   0.1563 0.1563 0.0938  plane waves:     640
 k-point    45 :   0.2188 0.1563 0.0938  plane waves:     635
 k-point    46 :   0.2813 0.1563 0.0938  plane waves:     631
 k-point    47 :   0.3438 0.1563 0.0938  plane waves:     631
 k-point    48 :   0.4063 0.1563 0.0938  plane waves:     630
 k-point    49 :   0.4688 0.1563 0.0938  plane waves:     629
 k-point    50 :   0.2188 0.2188 0.0938  plane waves:     634
 k-point    51 :   0.2813 0.2188 0.0938  plane waves:     632
 k-point    52 :   0.3438 0.2188 0.0938  plane waves:     626
 k-point    53 :   0.4063 0.2188 0.0938  plane waves:     624
 k-point    54 :   0.4688 0.2188 0.0938  plane waves:     624
 k-point    55 :   0.2813 0.2813 0.0938  plane waves:     625
 k-point    56 :   0.3438 0.2813 0.0938  plane waves:     626
 k-point    57 :   0.4063 0.2813 0.0938  plane waves:     622
 k-point    58 :   0.4688 0.2813 0.0938  plane waves:     624
 k-point    59 :   0.3438 0.3438 0.0938  plane waves:     625
 k-point    60 :   0.4063 0.3438 0.0938  plane waves:     620
 k-point    61 :   0.4688 0.3438 0.0938  plane waves:     620
 k-point    62 :   0.4063 0.4063 0.0938  plane waves:     626
 k-point    63 :   0.4688 0.4063 0.0938  plane waves:     625
 k-point    64 :   0.4688 0.4688 0.0938  plane waves:     629
 k-point    65 :   0.1563 0.1563 0.1563  plane waves:     645
 k-point    66 :   0.2188 0.1563 0.1563  plane waves:     630
 k-point    67 :   0.2813 0.1563 0.1563  plane waves:     628
 k-point    68 :   0.3438 0.1563 0.1563  plane waves:     627
 k-point    69 :   0.4063 0.1563 0.1563  plane waves:     627
 k-point    70 :   0.4688 0.1563 0.1563  plane waves:     629
 k-point    71 :   0.2188 0.2188 0.1563  plane waves:     632
 k-point    72 :   0.2813 0.2188 0.1563  plane waves:     627
 k-point    73 :   0.3438 0.2188 0.1563  plane waves:     626
 k-point    74 :   0.4063 0.2188 0.1563  plane waves:     626
 k-point    75 :   0.4688 0.2188 0.1563  plane waves:     622
 k-point    76 :   0.2813 0.2813 0.1563  plane waves:     625
 k-point    77 :   0.3438 0.2813 0.1563  plane waves:     618
 k-point    78 :   0.4063 0.2813 0.1563  plane waves:     624
 k-point    79 :   0.4688 0.2813 0.1563  plane waves:     623
 k-point    80 :   0.3438 0.3438 0.1563  plane waves:     622
 k-point    81 :   0.4063 0.3438 0.1563  plane waves:     624
 k-point    82 :   0.4688 0.3438 0.1563  plane waves:     621
 k-point    83 :   0.4063 0.4063 0.1563  plane waves:     624
 k-point    84 :   0.4688 0.4063 0.1563  plane waves:     626
 k-point    85 :   0.4688 0.4688 0.1563  plane waves:     627
 k-point    86 :   0.2188 0.2188 0.2188  plane waves:     627
 k-point    87 :   0.2813 0.2188 0.2188  plane waves:     622
 k-point    88 :   0.3438 0.2188 0.2188  plane waves:     625
 k-point    89 :   0.4063 0.2188 0.2188  plane waves:     629
 k-point    90 :   0.4688 0.2188 0.2188  plane waves:     628
 k-point    91 :   0.2813 0.2813 0.2188  plane waves:     624
 k-point    92 :   0.3438 0.2813 0.2188  plane waves:     623
 k-point    93 :   0.4063 0.2813 0.2188  plane waves:     623
 k-point    94 :   0.4688 0.2813 0.2188  plane waves:     627
 k-point    95 :   0.3438 0.3438 0.2188  plane waves:     623
 k-point    96 :   0.4063 0.3438 0.2188  plane waves:     630
 k-point    97 :   0.4688 0.3438 0.2188  plane waves:     630
 k-point    98 :   0.4063 0.4063 0.2188  plane waves:     628
 k-point    99 :   0.4688 0.4063 0.2188  plane waves:     630
 k-point   100 :   0.4688 0.4688 0.2188  plane waves:     630
 k-point   101 :   0.2813 0.2813 0.2813  plane waves:     627
 k-point   102 :   0.3438 0.2813 0.2813  plane waves:     625
 k-point   103 :   0.4063 0.2813 0.2813  plane waves:     627
 k-point   104 :   0.4688 0.2813 0.2813  plane waves:     632
 k-point   105 :   0.3438 0.3438 0.2813  plane waves:     630
 k-point   106 :   0.4063 0.3438 0.2813  plane waves:     629
 k-point   107 :   0.4688 0.3438 0.2813  plane waves:     626
 k-point   108 :   0.4063 0.4063 0.2813  plane waves:     625
 k-point   109 :   0.4688 0.4063 0.2813  plane waves:     624
 k-point   110 :   0.4688 0.4688 0.2813  plane waves:     632
 k-point   111 :   0.3438 0.3438 0.3438  plane waves:     627
 k-point   112 :   0.4063 0.3438 0.3438  plane waves:     625
 k-point   113 :   0.4688 0.3438 0.3438  plane waves:     634
 k-point   114 :   0.4063 0.4063 0.3438  plane waves:     627
 k-point   115 :   0.4688 0.4063 0.3438  plane waves:     632
 k-point   116 :   0.4688 0.4688 0.3438  plane waves:     638
 k-point   117 :   0.4063 0.4063 0.4063  plane waves:     639
 k-point   118 :   0.4688 0.4063 0.4063  plane waves:     636
 k-point   119 :   0.4688 0.4688 0.4063  plane waves:     638
 k-point   120 :   0.4688 0.4688 0.4688  plane waves:     624

 maximum and minimum number of plane-waves per node :       645      618

 maximum number of plane-waves:       645
 maximum index in each direction: 
   IXMAX=    5   IYMAX=    5   IZMAX=    5
   IXMIN=   -5   IYMIN=   -5   IZMIN=   -5


 serial   3D FFT for wavefunctions
 parallel 3D FFT for charge:
    minimum data exchange during FFTs selected (reduces bandwidth)


 total amount of memory used by VASP MPI-rank0   103824. kBytes
=======================================================================

   base                                    :      30000. kBytes
   nonlr-proj                              :       2517. kBytes
   fftplans                                :      16524. kBytes
   grid                                    :      10266. kBytes
   one-center                              :         62. kBytes
   wavefun                                 :      44455. kBytes
 
     INWAV:  cpu time      0.0000: real time      0.0000
 Broyden mixing: mesh for mixing (old mesh)
   NGX = 11   NGY = 11   NGZ = 11
  (NGX  = 48   NGY  = 48   NGZ  = 48)
  gives a total of   1331 points

 initial charge density was supplied:
 charge density of overlapping atoms calculated
 number of electron      23.0000000 magnetization       4.2000000
 keeping initial charge density in first step


--------------------------------------------------------------------------------------------------------


 Maximum index for non-local projection operator          7153
 Maximum index for augmentation-charges        181379 (set IRDMAX)


--------------------------------------------------------------------------------------------------------


 First call to EWALD:  gamma=   0.620
 Maximum number of real-space cells   3x   3x   3
 Maximum number of reciprocal cells   3x   3x   3

    FEWALD:  cpu time      0.0006: real time      0.0006


--------------------------------------- Ionic step        1  -------------------------------------------




--------------------------------------- Iteration      1(   1)  ---------------------------------------


    POTLOK:  cpu time      0.0154: real time      0.0154
    SETDIJ:  cpu time      0.2683: real time      0.2681
     EDDAV:  cpu time      5.3951: real time      5.3938
       DOS:  cpu time      0.0019: real time      0.0019
    --------------------------------------------
      LOOP:  cpu time      5.6807: real time      5.6792

 eigenvalue-minimisations  :  8616
 total energy-change (2. order) : 0.1610247E+03  (-0.1294065E+04)
 number of electron      23.0000000 magnetization       4.2000000
 augmentation part       23.0000000 magnetization       4.2000000

 Free energy of the ion-electron system (eV)
  ---------------------------------------------------
  alpha Z        PSCENC =       134.72098990
  Ewald energy   TEWEN  =     -2489.89625993
  -Hartree energ DENC   =      -785.81147160
  -exchange      EXHF   =         0.00000000
  -V(xc)+E(xc)   XCENC  =        88.72047991
  PAW double counting   =      2721.40325464    -2864.28000685
  entropy T*S    EENTRO =         0.00004312
  eigenvalues    EBANDS =        85.38569795
  atomic energy  EATOM  =      3270.78193226
  Solvation  Ediel_sol  =         0.00000000
  ---------------------------------------------------
  free energy    TOTEN  =       161.02465940 eV

  energy without entropy =      161.02461628  energy(sigma->0) =      161.02464503


--------------------------------------------------------------------------------------------------------




--------------------------------------- Iteration      1(   2)  ---------------------------------------


     EDDAV:  cpu time      5.0911: real time      5.0899
       DOS:  cpu time      0.0021: real time      0.0021
    --------------------------------------------
      LOOP:  cpu time      5.0932: real time      5.0920

 eigenvalue-minimisations  :  8181
 total energy-change (2. order) :-0.1723088E+03  (-0.1674308E+03)
 number of electron      23.0000000 magnetization       4.2000000
 augmentation part       23.0000000 magnetization       4.2000000

 Free energy of the ion-electron system (eV)
  ---------------------------------------------------
  alpha Z        PSCENC =       134.72098990
  Ewald energy   TEWEN  =     -2489.89625993
  -Hartree energ DENC   =      -785.81147160
  -exchange      EXHF   =         0.00000000
  -V(xc)+E(xc)   XCENC  =        88.72047991
  PAW double counting   =      2721.40325464    -2864.28000685
  entropy T*S    EENTRO =         0.00164147
  eigenvalues    EBANDS =       -86.92473536
  atomic energy  EATOM  =      3270.78193226
  Solvation  Ediel_sol  =         0.00000000
  ---------------------------------------------------
  free energy    TOTEN  =       -11.28417557 eV

  energy without entropy =      -11.28581703  energy(sigma->0) =      -11.28472272


--------------------------------------------------------------------------------------------------------




--------------------------------------- Iteration      1(   3)  ---------------------------------------


     EDDAV:  cpu time      5.2843: real time      5.2831
       DOS:  cpu time      0.0020: real time      0.0020
    --------------------------------------------
      LOOP:  cpu time      5.2863: real time      5.2851

 eigenvalue-minimisations  :  8523
 total energy-change (2. order) :-0.5995725E+01  (-0.5914783E+01)
 number of electron      23.0000000 magnetization       4.2000000
 augmentation part       23.0000000 magnetization       4.2000000

 Free energy of the ion-electron system (eV)
  ---------------------------------------------------
  alpha Z        PSCENC =       134.72098990
  Ewald energy   TEWEN  =     -2489.89625993
  -Hartree energ DENC   =      -785.81147160
  -exchange      EXHF   =         0.00000000
  -V(xc)+E(xc)   XCENC  =        88.72047991
  PAW double counting   =      2721.40325464    -2864.28000685
  entropy T*S    EENTRO =        -0.00024356
  eigenvalues    EBANDS =       -92.91857574
  atomic energy  EATOM  =      3270.78193226
  Solvation  Ediel_sol  =         0.00000000
  ---------------------------------------------------
  free energy    TOTEN  =       -17.27990096 eV

  energy without entropy =      -17.27965741  energy(sigma->0) =      -17.27981978


--------------------------------------------------------------------------------------------------------




--------------------------------------- Iteration      1(   4)  ---------------------------------------


     EDDAV:  cpu time      5.5761: real time      5.5749
       DOS:  cpu time      0.0021: real time      0.0021
    --------------------------------------------
      LOOP:  cpu time      5.5782: real time      5.5769

 eigenvalue-minimisations  :  9122
 total energy-change (2. order) :-0.1008524E+00  (-0.1008284E+00)
 number of electron      23.0000000 magnetization       4.2000000
 augmentation part       23.0000000 magnetization       4.2000000

 Free energy of the ion-electron system (eV)
  ---------------------------------------------------
  alpha Z        PSCENC =       134.72098990
  Ewald energy   TEWEN  =     -2489.89625993
  -Hartree energ DENC   =      -785.81147160
  -exchange      EXHF   =         0.00000000
  -V(xc)+E(xc)   XCENC  =        88.72047991
  PAW double counting   =      2721.40325464    -2864.28000685
  entropy T*S    EENTRO =        -0.00025294
  eigenvalues    EBANDS =       -93.01941875
  atomic energy  EATOM  =      3270.78193226
  Solvation  Ediel_sol  =         0.00000000
  ---------------------------------------------------
  free energy    TOTEN  =       -17.38075336 eV

  energy without entropy =      -17.38050042  energy(sigma->0) =      -17.38066905


--------------------------------------------------------------------------------------------------------




--------------------------------------- Iteration      1(   5)  ---------------------------------------


     EDDAV:  cpu time      5.9023: real time      5.9009
       DOS:  cpu time      0.0021: real time      0.0021
    CHARGE:  cpu time      0.3349: real time      0.3349
    MIXING:  cpu time      0.0025: real time      0.0025
    --------------------------------------------
      LOOP:  cpu time      6.2418: real time      6.2403

 eigenvalue-minimisations  :  9862
 total energy-change (2. order) :-0.4114300E-02  (-0.4114160E-02)
 number of electron      23.0000001 magnetization       4.3449253
 augmentation part       12.5068408 magnetization       3.1926343

 Broyden mixing:
  rms(total) = 0.15384E+01    rms(broyden)= 0.15384E+01
  rms(prec ) = 0.35115E+01
  weight for this iteration     100.00

 Free energy of the ion-electron system (eV)
  ---------------------------------------------------
  alpha Z        PSCENC =       134.72098990
  Ewald energy   TEWEN  =     -2489.89625993
  -Hartree energ DENC   =      -785.81147160
  -exchange      EXHF   =         0.00000000
  -V(xc)+E(xc)   XCENC  =        88.72047991
  PAW double counting   =      2721.40325464    -2864.28000685
  entropy T*S    EENTRO =        -0.00025324
  eigenvalues    EBANDS =       -93.02353275
  atomic energy  EATOM  =      3270.78193226
  Solvation  Ediel_sol  =         0.00000000
  ---------------------------------------------------
  free energy    TOTEN  =       -17.38486766 eV

  energy without entropy =      -17.38461443  energy(sigma->0) =      -17.38478325


--------------------------------------------------------------------------------------------------------




--------------------------------------- Iteration      1(   6)  ---------------------------------------


    POTLOK:  cpu time      0.0058: real time      0.0058
    SETDIJ:  cpu time      0.2644: real time      0.2643
     EDDAV:  cpu time      5.2050: real time      5.2043
       DOS:  cpu time      0.0019: real time      0.0019
    CHARGE:  cpu time      0.3318: real time      0.3317
    MIXING:  cpu time      0.0025: real time      0.0025
    --------------------------------------------
      LOOP:  cpu time      5.8114: real time      5.8105

 eigenvalue-minimisations  :  8353
 total energy-change (2. order) : 0.1688765E+01  (-0.1800242E+01)
 number of electron      23.0000001 magnetization       4.3821001
 augmentation part       13.9186864 magnetization       3.5952959

 Broyden mixing:
  rms(total) = 0.86581E+00    rms(broyden)= 0.86577E+00
  rms(prec ) = 0.13216E+01
  weight for this iteration     100.00

 eigenvalues of (default mixing * dielectric matrix)
  average eigenvalue GAMMA=   0.6603
  0.6603

 Free energy of the ion-electron system (eV)
  ---------------------------------------------------
  alpha Z        PSCENC =       134.72098990
  Ewald energy   TEWEN  =     -2489.89625993
  -Hartree energ DENC   =      -725.54520228
  -exchange      EXHF   =         0.00000000
  -V(xc)+E(xc)   XCENC  =        86.47400848
  PAW double counting   =      2801.22302919    -2935.99266303
  entropy T*S    EENTRO =        -0.00105452
  eigenvalues    EBANDS =      -157.46088268
  atomic energy  EATOM  =      3270.78193226
  Solvation  Ediel_sol  =         0.00000000
  ---------------------------------------------------
  free energy    TOTEN  =       -15.69610261 eV

  energy without entropy =      -15.69504809  energy(sigma->0) =      -15.69575110


--------------------------------------------------------------------------------------------------------




--------------------------------------- Iteration      1(   7)  ---------------------------------------


    POTLOK:  cpu time      0.0058: real time      0.0058
    SETDIJ:  cpu time      0.2648: real time      0.2647
     EDDAV:  cpu time      5.3374: real time      5.3365
       DOS:  cpu time      0.0020: real time      0.0020
    CHARGE:  cpu time      0.3324: real time      0.3325
    MIXING:  cpu time      0.0025: real time      0.0025
    --------------------------------------------
      LOOP:  cpu time      5.9449: real time      5.9440

 eigenvalue-minimisations  :  8691
 total energy-change (2. order) : 0.8670795E-01  (-0.2545829E+00)
 number of electron      23.0000001 magnetization       4.4483660
 augmentation part       13.5877770 magnetization       3.5410334

 Broyden mixing:
  rms(total) = 0.77734E+00    rms(broyden)= 0.77733E+00
  rms(prec ) = 0.17577E+01
  weight for this iteration     100.00

 eigenvalues of (default mixing * dielectric matrix)
  average eigenvalue GAMMA=   0.6903
  0.9570  0.4235

 Free energy of the ion-electron system (eV)
  ---------------------------------------------------
  alpha Z        PSCENC =       134.72098990
  Ewald energy   TEWEN  =     -2489.89625993
  -Hartree energ DENC   =      -739.82101334
  -exchange      EXHF   =         0.00000000
  -V(xc)+E(xc)   XCENC  =        87.23821652
  PAW double counting   =      2909.57704367    -3050.31743236
  entropy T*S    EENTRO =         0.00057699
  eigenvalues    EBANDS =      -137.89344838
  atomic energy  EATOM  =      3270.78193226
  Solvation  Ediel_sol  =         0.00000000
  ---------------------------------------------------
  free energy    TOTEN  =       -15.60939465 eV

  energy without entropy =      -15.60997164  energy(sigma->0) =      -15.60958698


--------------------------------------------------------------------------------------------------------




--------------------------------------- Iteration      1(   8)  ---------------------------------------


    POTLOK:  cpu time      0.0057: real time      0.0057
    SETDIJ:  cpu time      0.2649: real time      0.2648
     EDDAV:  cpu time      5.5130: real time      5.5119
       DOS:  cpu time      0.0020: real time      0.0020
    CHARGE:  cpu time      0.3334: real time      0.3333
    MIXING:  cpu time      0.0026: real time      0.0026
    --------------------------------------------
      LOOP:  cpu time      6.1215: real time      6.1203

 eigenvalue-minimisations  :  8952
 total energy-change (2. order) : 0.1144102E+00  (-0.1381023E+00)
 number of electron      23.0000001 magnetization       4.5466390
 augmentation part       13.4675601 magnetization       3.7405387

 Broyden mixing:
  rms(total) = 0.47777E+00    rms(broyden)= 0.47775E+00
  rms(prec ) = 0.10294E+01
  weight for this iteration     100.00

 eigenvalues of (default mixing * dielectric matrix)
  average eigenvalue GAMMA=   0.6095
  1.1382  0.4770  0.2131

 Free energy of the ion-electron system (eV)
  ---------------------------------------------------
  alpha Z        PSCENC =       134.72098990
  Ewald energy   TEWEN  =     -2489.89625993
  -Hartree energ DENC   =      -736.44693425
  -exchange      EXHF   =         0.00000000
  -V(xc)+E(xc)   XCENC  =        87.17278538
  PAW double counting   =      2928.16045175    -3070.27004967
  entropy T*S    EENTRO =        -0.00076541
  eigenvalues    EBANDS =      -139.71713445
  atomic energy  EATOM  =      3270.78193226
  Solvation  Ediel_sol  =         0.00000000
  ---------------------------------------------------
  free energy    TOTEN  =       -15.49498442 eV

  energy without entropy =      -15.49421901  energy(sigma->0) =      -15.49472928


--------------------------------------------------------------------------------------------------------




--------------------------------------- Iteration      1(   9)  ---------------------------------------


    POTLOK:  cpu time      0.0058: real time      0.0058
    SETDIJ:  cpu time      0.2661: real time      0.2660
     EDDAV:  cpu time      6.0596: real time      6.0587
       DOS:  cpu time      0.0019: real time      0.0019
    CHARGE:  cpu time      0.3348: real time      0.3347
    MIXING:  cpu time      0.0026: real time      0.0026
    --------------------------------------------
      LOOP:  cpu time      6.6708: real time      6.6697

 eigenvalue-minimisations  : 10170
 total energy-change (2. order) : 0.5330781E-01  (-0.2148125E-01)
 number of electron      23.0000001 magnetization       4.5959268
 augmentation part       13.5137791 magnetization       3.7551020

 Broyden mixing:
  rms(total) = 0.18880E+00    rms(broyden)= 0.18880E+00
  rms(prec ) = 0.27748E+00
  weight for this iteration     100.00

 eigenvalues of (default mixing * dielectric matrix)
  average eigenvalue GAMMA=   0.8571
  1.9079  0.6878  0.6516  0.1811

 Free energy of the ion-electron system (eV)
  ---------------------------------------------------
  alpha Z        PSCENC =       134.72098990
  Ewald energy   TEWEN  =     -2489.89625993
  -Hartree energ DENC   =      -734.67823144
  -exchange      EXHF   =         0.00000000
  -V(xc)+E(xc)   XCENC  =        87.15624560
  PAW double counting   =      2982.32352561    -3125.88837229
  entropy T*S    EENTRO =        -0.00011715
  eigenvalues    EBANDS =      -139.96138918
  atomic energy  EATOM  =      3270.78193226
  Solvation  Ediel_sol  =         0.00000000
  ---------------------------------------------------
  free energy    TOTEN  =       -15.44167661 eV

  energy without entropy =      -15.44155947  energy(sigma->0) =      -15.44163757


--------------------------------------------------------------------------------------------------------




--------------------------------------- Iteration      1(  10)  ---------------------------------------


    POTLOK:  cpu time      0.0057: real time      0.0057
    SETDIJ:  cpu time      0.2669: real time      0.2668
     EDDAV:  cpu time      5.4469: real time      5.4461
       DOS:  cpu time      0.0020: real time      0.0020
    CHARGE:  cpu time      0.3332: real time      0.3331
    MIXING:  cpu time      0.0026: real time      0.0026
    --------------------------------------------
      LOOP:  cpu time      6.0573: real time      6.0563

 eigenvalue-minimisations  :  8933
 total energy-change (2. order) : 0.1092883E-01  (-0.2347294E-02)
 number of electron      23.0000001 magnetization       4.5225234
 augmentation part       13.5469633 magnetization       3.6972114

 Broyden mixing:
  rms(total) = 0.52523E-01    rms(broyden)= 0.52523E-01
  rms(prec ) = 0.76622E-01
  weight for this iteration     100.00

 eigenvalues of (default mixing * dielectric matrix)
  average eigenvalue GAMMA=   1.0020
  2.3061  1.1677  0.6780  0.6780  0.1802

 Free energy of the ion-electron system (eV)
  ---------------------------------------------------
  alpha Z        PSCENC =       134.72098990
  Ewald energy   TEWEN  =     -2489.89625993
  -Hartree energ DENC   =      -730.26208234
  -exchange      EXHF   =         0.00000000
  -V(xc)+E(xc)   XCENC  =        87.02869778
  PAW double counting   =      3052.87702606    -3198.55443395
  entropy T*S    EENTRO =        -0.00007442
  eigenvalues    EBANDS =      -142.12654315
  atomic energy  EATOM  =      3270.78193226
  Solvation  Ediel_sol  =         0.00000000
  ---------------------------------------------------
  free energy    TOTEN  =       -15.43074778 eV

  energy without entropy =      -15.43067336  energy(sigma->0) =      -15.43072298


--------------------------------------------------------------------------------------------------------




--------------------------------------- Iteration      1(  11)  ---------------------------------------


    POTLOK:  cpu time      0.0058: real time      0.0058
    SETDIJ:  cpu time      0.2655: real time      0.2654
     EDDAV:  cpu time      5.6833: real time      5.6822
       DOS:  cpu time      0.0020: real time      0.0020
    CHARGE:  cpu time      0.3326: real time      0.3325
    MIXING:  cpu time      0.0026: real time      0.0026
    --------------------------------------------
      LOOP:  cpu time      6.2918: real time      6.2905

 eigenvalue-minimisations  :  9433
 total energy-change (2. order) :-0.3031486E-03  (-0.2839503E-03)
 number of electron      23.0000001 magnetization       4.5319859
 augmentation part       13.5496219 magnetization       3.7067289

 Broyden mixing:
  rms(total) = 0.20420E-01    rms(broyden)= 0.20419E-01
  rms(prec ) = 0.44061E-01
  weight for this iteration     100.00

 eigenvalues of (default mixing * dielectric matrix)
  average eigenvalue GAMMA=   0.9986
  2.4306  0.1802  1.2250  0.6757  0.6757  0.8040

 Free energy of the ion-electron system (eV)
  ---------------------------------------------------
  alpha Z        PSCENC =       134.72098990
  Ewald energy   TEWEN  =     -2489.89625993
  -Hartree energ DENC   =      -729.65873832
  -exchange      EXHF   =         0.00000000
  -V(xc)+E(xc)   XCENC  =        86.95384064
  PAW double counting   =      3071.73331305    -3218.00274073
  entropy T*S    EENTRO =        -0.00018407
  eigenvalues    EBANDS =      -142.06320374
  atomic energy  EATOM  =      3270.78193226
  Solvation  Ediel_sol  =         0.00000000
  ---------------------------------------------------
  free energy    TOTEN  =       -15.43105093 eV

  energy without entropy =      -15.43086686  energy(sigma->0) =      -15.43098957


--------------------------------------------------------------------------------------------------------




--------------------------------------- Iteration      1(  12)  ---------------------------------------


    POTLOK:  cpu time      0.0058: real time      0.0058
    SETDIJ:  cpu time      0.2678: real time      0.2677
     EDDAV:  cpu time      6.3247: real time      6.3234
       DOS:  cpu time      0.0019: real time      0.0019
    CHARGE:  cpu time      0.3362: real time      0.3361
    MIXING:  cpu time      0.0027: real time      0.0027
    --------------------------------------------
      LOOP:  cpu time      6.9390: real time      6.9376

 eigenvalue-minimisations  : 10815
 total energy-change (2. order) : 0.2900494E-04  (-0.2965728E-04)
 number of electron      23.0000001 magnetization       4.5357069
 augmentation part       13.5489491 magnetization       3.7091749

 Broyden mixing:
  rms(total) = 0.59234E-02    rms(broyden)= 0.59231E-02
  rms(prec ) = 0.12829E-01
  weight for this iteration     100.00

 eigenvalues of (default mixing * dielectric matrix)
  average eigenvalue GAMMA=   0.9481
  2.3862  0.1802  1.0430  1.0430  0.6837  0.6837  0.6165

 Free energy of the ion-electron system (eV)
  ---------------------------------------------------
  alpha Z        PSCENC =       134.72098990
  Ewald energy   TEWEN  =     -2489.89625993
  -Hartree energ DENC   =      -729.83925221
  -exchange      EXHF   =         0.00000000
  -V(xc)+E(xc)   XCENC  =        86.96622913
  PAW double counting   =      3069.34021767    -3215.51978673
  entropy T*S    EENTRO =        -0.00017495
  eigenvalues    EBANDS =      -141.98491707
  atomic energy  EATOM  =      3270.78193226
  Solvation  Ediel_sol  =         0.00000000
  ---------------------------------------------------
  free energy    TOTEN  =       -15.43102193 eV

  energy without entropy =      -15.43084698  energy(sigma->0) =      -15.43096361


--------------------------------------------------------------------------------------------------------




--------------------------------------- Iteration      1(  13)  ---------------------------------------


    POTLOK:  cpu time      0.0057: real time      0.0057
    SETDIJ:  cpu time      0.2665: real time      0.2664
     EDDAV:  cpu time      6.0521: real time      6.0510
       DOS:  cpu time      0.0018: real time      0.0018
    CHARGE:  cpu time      0.3328: real time      0.3328
    MIXING:  cpu time      0.0027: real time      0.0027
    --------------------------------------------
      LOOP:  cpu time      6.6618: real time      6.6604

 eigenvalue-minimisations  : 10252
 total energy-change (2. order) : 0.2269109E-06  (-0.3061479E-05)
 number of electron      23.0000001 magnetization       4.5348303
 augmentation part       13.5492780 magnetization       3.7081165

 Broyden mixing:
  rms(total) = 0.23343E-02    rms(broyden)= 0.23341E-02
  rms(prec ) = 0.49900E-02
  weight for this iteration     100.00

 eigenvalues of (default mixing * dielectric matrix)
  average eigenvalue GAMMA=   1.0633
  2.4489  1.8257  0.1802  1.0356  1.0356  0.6800  0.6800  0.6207

 Free energy of the ion-electron system (eV)
  ---------------------------------------------------
  alpha Z        PSCENC =       134.72098990
  Ewald energy   TEWEN  =     -2489.89625993
  -Hartree energ DENC   =      -729.87111262
  -exchange      EXHF   =         0.00000000
  -V(xc)+E(xc)   XCENC  =        86.97054278
  PAW double counting   =      3068.73295288    -3214.88295159
  entropy T*S    EENTRO =        -0.00017120
  eigenvalues    EBANDS =      -141.98694419
  atomic energy  EATOM  =      3270.78193226
  Solvation  Ediel_sol  =         0.00000000
  ---------------------------------------------------
  free energy    TOTEN  =       -15.43102170 eV

  energy without entropy =      -15.43085050  energy(sigma->0) =      -15.43096463


--------------------------------------------------------------------------------------------------------




--------------------------------------- Iteration      1(  14)  ---------------------------------------


    POTLOK:  cpu time      0.0058: real time      0.0057
    SETDIJ:  cpu time      0.2655: real time      0.2654
     EDDAV:  cpu time      5.2956: real time      5.2947
       DOS:  cpu time      0.0020: real time      0.0020
    --------------------------------------------
      LOOP:  cpu time      5.5688: real time      5.5678

 eigenvalue-minimisations  :  8535
 total energy-change (2. order) :-0.2997042E-06  (-0.6047315E-06)
 number of electron      23.0000001 magnetization       4.5348303
 augmentation part       13.5492780 magnetization       3.7081165

 Free energy of the ion-electron system (eV)
  ---------------------------------------------------
  alpha Z        PSCENC =       134.72098990
  Ewald energy   TEWEN  =     -2489.89625993
  -Hartree energ DENC   =      -729.86346912
  -exchange      EXHF   =         0.00000000
  -V(xc)+E(xc)   XCENC  =        86.96974809
  PAW double counting   =      3069.46678078    -3215.62443600
  entropy T*S    EENTRO =        -0.00017088
  eigenvalues    EBANDS =      -141.98613712
  atomic energy  EATOM  =      3270.78193226
  Solvation  Ediel_sol  =         0.00000000
  ---------------------------------------------------
  free energy    TOTEN  =       -15.43102200 eV

  energy without entropy =      -15.43085112  energy(sigma->0) =      -15.43096504


--------------------------------------------------------------------------------------------------------




 average (electrostatic) potential at core
  the test charge radii are     0.9500  1.0452
  (the norm of the test charge is              1.0000)
       1 -74.1125       2 -79.0177
 
 
 
 E-fermi :   9.9028     XC(G=0): -13.2525     alpha+bet :-16.8021

 val. band max:        9.8939491419   @ k =   0.4063   0.0938   0.0938
 cond. band min:       9.9060953735   @ k =   0.4688   0.2188   0.0313
 fundamental gap:      0.0121462316
 Fermi energy:         9.9027825711

 spin component 1

 k-point     1 :       0.0313    0.0313    0.0313
  band No.  band energies     occupation 
      1     -45.1688      1.00000
      2     -45.1687      1.00000
      3     -45.1687      1.00000
      4       0.9640      1.00000
      5       4.5501      1.00000
      6       4.5501      1.00000
      7       6.7710      1.00000
      8       6.7710      1.00000
      9       6.8150      1.00000
     10       7.8380      1.00000
     11       7.8380      1.00000
     12       8.8554      1.00000
     13       8.9226      1.00000
     14       8.9226      1.00000
     15      18.7128      0.00000
     16      18.7128      0.00000
     17      18.8116      0.00000

 k-point     2 :       0.0938    0.0313    0.0313
  band No.  band energies     occupation 
      1     -45.1730      1.00000
      2     -45.1685      1.00000
      3     -45.1684      1.00000
      4       1.1205      1.00000
      5       4.6117      1.00000
      6       4.6133      1.00000
      7       6.7494      1.00000
      8       6.7689      1.00000
      9       6.8751      1.00000
     10       7.7779      1.00000
     11       7.8632      1.00000
     12       8.7083      1.00000
     13       8.8073      1.00000
     14       8.9153      1.00000
     15      17.6534      0.00000
     16      18.9918      0.00000
     17      19.0677      0.00000

 k-point     3 :       0.1563    0.0313    0.0313
  band No.  band energies     occupation 
      1     -45.1809      1.00000
      2     -45.1680      1.00000
      3     -45.1679      1.00000
      4       1.4285      1.00000
      5       4.7292      1.00000
      6       4.7327      1.00000
      7       6.7397      1.00000
      8       6.7676      1.00000
      9       6.9642      1.00000
     10       7.6599      1.00000
     11       7.9119      1.00000
     12       8.4889      1.00000
     13       8.6002      1.00000
     14       8.8504      1.00000
     15      16.1376      0.00000
     16      19.5240      0.00000
     17      19.5975      0.00000

 k-point     4 :       0.2188    0.0313    0.0313
  band No.  band energies     occupation 
      1     -45.1912      1.00000
      2     -45.1673      1.00000
      3     -45.1672      1.00000
      4       1.8766      1.00000
      5       4.8758      1.00000
      6       4.9091      1.00000
      7       6.7448      1.00000
      8       6.7717      1.00000
      9       7.0831      1.00000
     10       7.4896      1.00000
     11       7.9825      1.00000
     12       8.2233      1.00000
     13       8.3368      1.00000
     14       8.7399      1.00000
     15      14.5377      0.00000
     16      20.2694      0.00000
     17      20.3435      0.00000

 k-point     5 :       0.2813    0.0313    0.0313
  band No.  band energies     occupation 
      1     -45.2024      1.00000
      2     -45.1665      1.00000
      3     -45.1665      1.00000
      4       2.4444      1.00000
      5       5.0183      1.00000
      6       5.1343      1.00000
      7       6.7707      1.00000
      8       6.7834      1.00000
      9       7.2296      1.00000
     10       7.2787      1.00000
     11       7.9426      1.00000
     12       8.0528      1.00000
     13       8.0781      1.00000
     14       8.5934      1.00000
     15      12.9946      0.00000
     16      21.1842      0.00000
     17      21.2657      0.00000

 k-point     6 :       0.3438    0.0313    0.0313
  band No.  band energies     occupation 
      1     -45.2127      1.00000
      2     -45.1658      1.00000
      3     -45.1658      1.00000
      4       3.0977      1.00000
      5       5.1063      1.00000
      6       5.3999      1.00000
      7       6.7758      1.00000
      8       6.8237      1.00000
      9       7.0702      1.00000
     10       7.3950      1.00000
     11       7.6800      1.00000
     12       7.7774      1.00000
     13       8.2124      1.00000
     14       8.4194      1.00000
     15      11.5867     -0.00000
     16      22.2262      0.00000
     17      22.3288      0.00000

 k-point     7 :       0.4063    0.0313    0.0313
  band No.  band energies     occupation 
      1     -45.2205      1.00000
      2     -45.1653      1.00000
      3     -45.1653      1.00000
      4       3.7783      1.00000
      5       5.0730      1.00000
      6       5.6953      1.00000
      7       6.6133      1.00000
      8       6.9074      1.00000
      9       7.0153      1.00000
     10       7.4146      1.00000
     11       7.5336      1.00000
     12       7.6148      1.00000
     13       8.2268      1.00000
     14       8.4254      1.00000
     15      10.3841     -0.00000
     16      23.3516      0.00000
     17      23.5037      0.00000

 k-point     8 :       0.4688    0.0313    0.0313
  band No.  band energies     occupation 
      1     -45.2248      1.00000
      2     -45.1650      1.00000
      3     -45.1650      1.00000
      4       4.3948      1.00000
      5       4.8477      1.00000
      6       6.0060      1.00000
      7       6.3282      1.00000
      8       7.0097      1.00000
      9       7.0844      1.00000
     10       7.2475      1.00000
     11       7.3514      1.00000
     12       7.7989      1.00000
     13       8.0301      1.00000
     14       8.7834      1.00000
     15       9.4660      1.00000
     16      24.5033      0.00000
     17      24.7647      0.00000

 k-point     9 :       0.0938    0.0938    0.0313
  band No.  band energies     occupation 
      1     -45.1730      1.00000
      2     -45.1725      1.00000
      3     -45.1682      1.00000
      4       1.2752      1.00000
      5       4.6694      1.00000
      6       4.6786      1.00000
      7       6.6941      1.00000
      8       6.7557      1.00000
      9       6.9729      1.00000
     10       7.7710      1.00000
     11       7.8460      1.00000
     12       8.5134      1.00000
     13       8.7212      1.00000
     14       8.9401      1.00000
     15      17.6792      0.00000
     16      18.1502      0.00000
     17      19.3028      0.00000

 k-point    10 :       0.1563    0.0938    0.0313
  band No.  band energies     occupation 
      1     -45.1806      1.00000
      2     -45.1721      1.00000
      3     -45.1676      1.00000
      4       1.5789      1.00000
      5       4.7789      1.00000
      6       4.8019      1.00000
      7       6.6467      1.00000
      8       6.7427      1.00000
      9       7.0978      1.00000
     10       7.6857      1.00000
     11       7.8833      1.00000
     12       8.2618      1.00000
     13       8.5212      1.00000
     14       8.9253      1.00000
     15      16.3197      0.00000
     16      18.4627      0.00000
     17      19.8110      0.00000

 k-point    11 :       0.2188    0.0938    0.0313
  band No.  band energies     occupation 
      1     -45.1909      1.00000
      2     -45.1714      1.00000
      3     -45.1669      1.00000
      4       2.0196      1.00000
      5       4.9247      1.00000
      6       4.9713      1.00000
      7       6.6205      1.00000
      8       6.7293      1.00000
      9       7.2435      1.00000
     10       7.5468      1.00000
     11       7.9537      1.00000
     12       7.9844      1.00000
     13       8.2662      1.00000
     14       8.8555      1.00000
     15      14.7205      0.00000
     16      19.1231      0.00000
     17      20.5303      0.00000

 k-point    12 :       0.2813    0.0938    0.0313
  band No.  band energies     occupation 
      1     -45.2020      1.00000
      2     -45.1706      1.00000
      3     -45.1662      1.00000
      4       2.5757      1.00000
      5       5.0674      1.00000
      6       5.1831      1.00000
      7       6.6206      1.00000
      8       6.7120      1.00000
      9       7.3831      1.00000
     10       7.4013      1.00000
     11       7.7132      1.00000
     12       7.9950      1.00000
     13       8.0540      1.00000
     14       8.7387      1.00000
     15      13.1689      0.00000
     16      19.9376      0.00000
     17      21.4232      0.00000

 k-point    13 :       0.3438    0.0938    0.0313
  band No.  band energies     occupation 
      1     -45.2122      1.00000
      2     -45.1699      1.00000
      3     -45.1655      1.00000
      4       3.2110      1.00000
      5       5.1510      1.00000
      6       5.4322      1.00000
      7       6.6298      1.00000
      8       6.6833      1.00000
      9       7.2452      1.00000
     10       7.3982      1.00000
     11       7.6402      1.00000
     12       7.7479      1.00000
     13       8.1906      1.00000
     14       8.5855      1.00000
     15      11.7448     -0.00000
     16      20.8632      0.00000
     17      22.4539      0.00000

 k-point    14 :       0.4063    0.0938    0.0313
  band No.  band energies     occupation 
      1     -45.2200      1.00000
      2     -45.1694      1.00000
      3     -45.1649      1.00000
      4       3.8661      1.00000
      5       5.1102      1.00000
      6       5.7072      1.00000
      7       6.5025      1.00000
      8       6.7376      1.00000
      9       7.1906      1.00000
     10       7.1964      1.00000
     11       7.5479      1.00000
     12       7.8168      1.00000
     13       8.3998      1.00000
     14       8.4262      1.00000
     15      10.5126     -0.00000
     16      21.8705      0.00000
     17      23.5891      0.00000

 k-point    15 :       0.4688    0.0938    0.0313
  band No.  band energies     occupation 
      1     -45.2243      1.00000
      2     -45.1691      1.00000
      3     -45.1647      1.00000
      4       4.4541      1.00000
      5       4.8853      1.00000
      6       5.9921      1.00000
      7       6.2717      1.00000
      8       6.8366      1.00000
      9       7.0234      1.00000
     10       7.2132      1.00000
     11       7.4233      1.00000
     12       8.0104      1.00000
     13       8.2143      1.00000
     14       8.8182      1.00000
     15       9.5463      1.00000
     16      22.9344      0.00000
     17      24.0838      0.00000

 k-point    16 :       0.1563    0.1563    0.0313
  band No.  band energies     occupation 
      1     -45.1805      1.00000
      2     -45.1794      1.00000
      3     -45.1671      1.00000
      4       1.8733      1.00000
      5       4.8682      1.00000
      6       4.9361      1.00000
      7       6.5550      1.00000
      8       6.7123      1.00000
      9       7.2613      1.00000
     10       7.6957      1.00000
     11       7.8624      1.00000
     12       7.9864      1.00000
     13       8.3327      1.00000
     14       8.9723      1.00000
     15      16.2712      0.00000
     16      17.3977      0.00000
     17      20.2812      0.00000

 k-point    17 :       0.2188    0.1563    0.0313
  band No.  band energies     occupation 
      1     -45.1902      1.00000
      2     -45.1791      1.00000
      3     -45.1664      1.00000
      4       2.2975      1.00000
      5       4.9850      1.00000
      6       5.1180      1.00000
      7       6.4872      1.00000
      8       6.6816      1.00000
      9       7.4273      1.00000
     10       7.6270      1.00000
     11       7.7117      1.00000
     12       7.9096      1.00000
     13       8.0992      1.00000
     14       8.9615      1.00000
     15      14.9785      0.00000
     16      17.6811      0.00000
     17      20.9541      0.00000

 k-point    18 :       0.2813    0.1563    0.0313
  band No.  band energies     occupation 
      1     -45.2012      1.00000
      2     -45.1783      1.00000
      3     -45.1656      1.00000
      4       2.8268      1.00000
      5       5.1001      1.00000
      6       5.3307      1.00000
      7       6.4506      1.00000
      8       6.6510      1.00000
      9       7.3697      1.00000
     10       7.5224      1.00000
     11       7.6832      1.00000
     12       7.8663      1.00000
     13       8.0062      1.00000
     14       8.8944      1.00000
     15      13.4527      0.00000
     16      18.3894      0.00000
     17      21.7984      0.00000

 k-point    19 :       0.3438    0.1563    0.0313
  band No.  band energies     occupation 
      1     -45.2114      1.00000
      2     -45.1775      1.00000
      3     -45.1649      1.00000
      4       3.4198      1.00000
      5       5.1629      1.00000
      6       5.5627      1.00000
      7       6.4473      1.00000
      8       6.6031      1.00000
      9       7.1305      1.00000
     10       7.4358      1.00000
     11       7.6839      1.00000
     12       7.8712      1.00000
     13       8.1492      1.00000
     14       8.7796      1.00000
     15      12.0126      0.00000
     16      19.2392      0.00000
     17      22.7822      0.00000

 k-point    20 :       0.4063    0.1563    0.0313
  band No.  band energies     occupation 
      1     -45.2191      1.00000
      2     -45.1769      1.00000
      3     -45.1643      1.00000
      4       4.0139      1.00000
      5       5.1127      1.00000
      6       5.8069      1.00000
      7       6.4341      1.00000
      8       6.5475      1.00000
      9       6.9191      1.00000
     10       7.3966      1.00000
     11       7.5790      1.00000
     12       8.0642      1.00000
     13       8.4123      1.00000
     14       8.6280      1.00000
     15      10.7368     -0.00000
     16      20.1873      0.00000
     17      23.5403      0.00000

 k-point    21 :       0.4688    0.1563    0.0313
  band No.  band energies     occupation 
      1     -45.2233      1.00000
      2     -45.1766      1.00000
      3     -45.1640      1.00000
      4       4.5307      1.00000
      5       4.9062      1.00000
      6       6.0515      1.00000
      7       6.2776      1.00000
      8       6.6056      1.00000
      9       6.7516      1.00000
     10       7.3886      1.00000
     11       7.5457      1.00000
     12       8.2562      1.00000
     13       8.4480      1.00000
     14       8.8893      1.00000
     15       9.6949      1.00614
     16      21.2145      0.00000
     17      22.3526      0.00000

 k-point    22 :       0.2188    0.2188    0.0313
  band No.  band energies     occupation 
      1     -45.1900      1.00000
      2     -45.1885      1.00000
      3     -45.1656      1.00000
      4       2.6923      1.00000
      5       5.0521      1.00000
      6       5.3224      1.00000
      7       6.3780      1.00000
      8       6.6505      1.00000
      9       7.3572      1.00000
     10       7.6671      1.00000
     11       7.7069      1.00000
     12       7.8872      1.00000
     13       7.9076      1.00000
     14       9.0140      1.00000
     15      14.8032      0.00000
     16      16.7836      0.00000
     17      21.5675      0.00000

 k-point    23 :       0.2813    0.2188    0.0313
  band No.  band energies     occupation 
      1     -45.2002      1.00000
      2     -45.1882      1.00000
      3     -45.1648      1.00000
      4       3.1718      1.00000
      5       5.1034      1.00000
      6       5.5602      1.00000
      7       6.3033      1.00000
      8       6.6473      1.00000
      9       7.0904      1.00000
     10       7.6281      1.00000
     11       7.7547      1.00000
     12       7.9081      1.00000
     13       7.9493      1.00000
     14       9.0058      1.00000
     15      13.6686      0.00000
     16      17.0326      0.00000
     17      22.3467      0.00000

 k-point    24 :       0.3438    0.2188    0.0313
  band No.  band energies     occupation 
      1     -45.2103      1.00000
      2     -45.1874      1.00000
      3     -45.1640      1.00000
      4       3.6861      1.00000
      5       5.1065      1.00000
      6       5.8085      1.00000
      7       6.2692      1.00000
      8       6.6535      1.00000
      9       6.8468      1.00000
     10       7.5555      1.00000
     11       7.6863      1.00000
     12       8.0566      1.00000
     13       8.1549      1.00000
     14       8.9407      1.00000
     15      12.2938      0.00000
     16      17.7393      0.00000
     17      23.2360      0.00000

 k-point    25 :       0.4063    0.2188    0.0313
  band No.  band energies     occupation 
      1     -45.2180      1.00000
      2     -45.1867      1.00000
      3     -45.1635      1.00000
      4       4.1699      1.00000
      5       5.0305      1.00000
      6       6.0479      1.00000
      7       6.2782      1.00000
      8       6.6133      1.00000
      9       6.6472      1.00000
     10       7.5295      1.00000
     11       7.6819      1.00000
     12       8.2524      1.00000
     13       8.4578      1.00000
     14       8.8264      1.00000
     15      10.9980     -0.00000
     16      18.6149      0.00000
     17      21.9071      0.00000

 k-point    26 :       0.4688    0.2188    0.0313
  band No.  band energies     occupation 
      1     -45.2221      1.00000
      2     -45.1863      1.00000
      3     -45.1631      1.00000
      4       4.5631      1.00000
      5       4.8588      1.00000
      6       6.2529      1.00000
      7       6.3202      1.00000
      8       6.5015      1.00000
      9       6.5133      1.00000
     10       7.5407      1.00000
     11       7.6857      1.00000
     12       8.4770      1.00000
     13       8.6688      1.00000
     14       8.9986      1.00000
     15       9.8852      0.64622
     16      19.6011      0.00000
     17      20.7166      0.00000

 k-point    27 :       0.2813    0.2813    0.0313
  band No.  band energies     occupation 
      1     -45.1998      1.00000
      2     -45.1984      1.00000
      3     -45.1639      1.00000
      4       3.5674      1.00000
      5       5.0751      1.00000
      6       5.8350      1.00000
      7       6.1920      1.00000
      8       6.7282      1.00000
      9       6.8201      1.00000
     10       7.5955      1.00000
     11       7.7750      1.00000
     12       7.9192      1.00000
     13       8.1496      1.00000
     14       9.0577      1.00000
     15      13.3793      0.00000
     16      16.3655      0.00000
     17      23.0493      0.00000

 k-point    28 :       0.3438    0.2813    0.0313
  band No.  band energies     occupation 
      1     -45.2091      1.00000
      2     -45.1981      1.00000
      3     -45.1632      1.00000
      4       3.9555      1.00000
      5       5.0078      1.00000
      6       6.1152      1.00000
      7       6.1326      1.00000
      8       6.5826      1.00000
      9       6.8720      1.00000
     10       7.5698      1.00000
     11       7.7962      1.00000
     12       7.9974      1.00000
     13       8.3880      1.00000
     14       9.0479      1.00000
     15      12.4016      0.00000
     16      16.5952      0.00000
     17      21.6837      0.00000

 k-point    29 :       0.4063    0.2813    0.0313
  band No.  band energies     occupation 
      1     -45.2167      1.00000
      2     -45.1973      1.00000
      3     -45.1626      1.00000
      4       4.2842      1.00000
      5       4.9007      1.00000
      6       6.1057      1.00000
      7       6.3457      1.00000
      8       6.4453      1.00000
      9       6.9379      1.00000
     10       7.6027      1.00000
     11       7.8215      1.00000
     12       8.2702      1.00000
     13       8.6468      1.00000
     14       8.9793      1.00000
     15      11.2060     -0.00000
     16      17.2766      0.00000
     17      20.3928      0.00000

 k-point    30 :       0.4688    0.2813    0.0313
  band No.  band energies     occupation 
      1     -45.2208      1.00000
      2     -45.1969      1.00000
      3     -45.1622      1.00000
      4       4.5291      1.00000
      5       4.7629      1.00000
      6       6.1391      1.00000
      7       6.2342      1.00000
      8       6.6594      1.00000
      9       6.8473      1.00000
     10       7.6571      1.00000
     11       7.8117      1.00000
     12       8.6478      1.00000
     13       8.8526      1.00000
     14       9.1422      1.00000
     15      10.0762     -0.01709
     16      18.1662      0.00000
     17      19.2264      0.00000

 k-point    31 :       0.3438    0.3438    0.0313
  band No.  band energies     occupation 
      1     -45.2085      1.00000
      2     -45.2074      1.00000
      3     -45.1623      1.00000
      4       4.1798      1.00000
      5       4.8885      1.00000
      6       6.0241      1.00000
      7       6.3560      1.00000
      8       6.4660      1.00000
      9       7.2411      1.00000
     10       7.6065      1.00000
     11       7.8849      1.00000
     12       7.9544      1.00000
     13       8.6246      1.00000
     14       9.0934      1.00000
     15      12.0496      0.00000
     16      16.1124      0.00000
     17      20.2864      0.00000

 k-point    32 :       0.4063    0.3438    0.0313
  band No.  band energies     occupation 
      1     -45.2155      1.00000
      2     -45.2071      1.00000
      3     -45.1617      1.00000
      4       4.3454      1.00000
      5       4.7662      1.00000
      6       5.9762      1.00000
      7       6.1773      1.00000
      8       6.7981      1.00000
      9       7.4397      1.00000
     10       7.6789      1.00000
     11       7.9225      1.00000
     12       8.2341      1.00000
     13       8.8671      1.00000
     14       9.0744      1.00000
     15      11.2155     -0.00000
     16      16.3364      0.00000
     17      19.0269      0.00000

 k-point    33 :       0.4688    0.3438    0.0313
  band No.  band energies     occupation 
      1     -45.2196      1.00000
      2     -45.2067      1.00000
      3     -45.1614      1.00000
      4       4.4593      1.00000
      5       4.6627      1.00000
      6       5.9841      1.00000
      7       6.0532      1.00000
      8       7.0896      1.00000
      9       7.3227      1.00000
     10       7.7447      1.00000
     11       7.9044      1.00000
     12       8.7630      1.00000
     13       8.9843      1.00000
     14       9.3093      1.00000
     15      10.2096     -0.00006
     16      16.9931      0.00000
     17      17.9279      0.00000

 k-point    34 :       0.4063    0.4063    0.0313
  band No.  band energies     occupation 
      1     -45.2148      1.00000
      2     -45.2144      1.00000
      3     -45.1611      1.00000
      4       4.3754      1.00000
      5       4.6540      1.00000
      6       5.8988      1.00000
      7       6.0208      1.00000
      8       7.1848      1.00000
      9       7.7226      1.00000
     10       7.8605      1.00000
     11       7.9873      1.00000
     12       8.3731      1.00000
     13       9.1000      1.00000
     14       9.1031      1.00000
     15      10.8723     -0.00000
     16      15.9751      0.00000
     17      17.8413      0.00000

 k-point    35 :       0.4688    0.4063    0.0313
  band No.  band energies     occupation 
      1     -45.2187      1.00000
      2     -45.2141      1.00000
      3     -45.1607      1.00000
      4       4.3926      1.00000
      5       4.5855      1.00000
      6       5.8791      1.00000
      7       5.9203      1.00000
      8       7.5161      1.00000
      9       7.7519      1.00000
     10       7.8289      1.00000
     11       7.9642      1.00000
     12       8.8430      1.00000
     13       9.0505      1.00000
     14       9.5023      1.00000
     15      10.2116     -0.00006
     16      16.1992      0.00000
     17      16.8846      0.00000

 k-point    36 :       0.4688    0.4688    0.0313
  band No.  band energies     occupation 
      1     -45.2182      1.00000
      2     -45.2181      1.00000
      3     -45.1604      1.00000
      4       4.3538      1.00000
      5       4.5442      1.00000
      6       5.8318      1.00000
      7       5.8455      1.00000
      8       7.8228      1.00000
      9       7.8354      1.00000
     10       7.9701      1.00000
     11       8.0349      1.00000
     12       8.9428      1.00000
     13       9.0364      1.00000
     14       9.7518      1.02721
     15      10.0347     -0.03424
     16      15.8973      0.00000
     17      16.1954      0.00000

 k-point    37 :       0.0938    0.0938    0.0938
  band No.  band energies     occupation 
      1     -45.1728      1.00000
      2     -45.1722      1.00000
      3     -45.1722      1.00000
      4       1.4281      1.00000
      5       4.7348      1.00000
      6       4.7348      1.00000
      7       6.6825      1.00000
      8       6.6826      1.00000
      9       7.0824      1.00000
     10       7.8005      1.00000
     11       7.8005      1.00000
     12       8.2802      1.00000
     13       8.8251      1.00000
     14       8.8251      1.00000
     15      17.9349      0.00000
     16      17.9349      0.00000
     17      18.6271      0.00000

 k-point    38 :       0.1563    0.0938    0.0938
  band No.  band energies     occupation 
      1     -45.1803      1.00000
      2     -45.1720      1.00000
      3     -45.1717      1.00000
      4       1.7280      1.00000
      5       4.8449      1.00000
      6       4.8543      1.00000
      7       6.6147      1.00000
      8       6.6609      1.00000
      9       7.2268      1.00000
     10       7.7129      1.00000
     11       7.8555      1.00000
     12       8.0042      1.00000
     13       8.6199      1.00000
     14       8.8627      1.00000
     15      16.5143      0.00000
     16      18.4188      0.00000
     17      18.9434      0.00000

 k-point    39 :       0.2188    0.0938    0.0938
  band No.  band energies     occupation 
      1     -45.1905      1.00000
      2     -45.1712      1.00000
      3     -45.1710      1.00000
      4       2.1621      1.00000
      5       5.0036      1.00000
      6       5.0043      1.00000
      7       6.5737      1.00000
      8       6.6303      1.00000
      9       7.3839      1.00000
     10       7.5915      1.00000
     11       7.7250      1.00000
     12       7.9318      1.00000
     13       8.3622      1.00000
     14       8.8346      1.00000
     15      14.9097      0.00000
     16      19.0877      0.00000
     17      19.5537      0.00000

 k-point    40 :       0.2813    0.0938    0.0938
  band No.  band energies     occupation 
      1     -45.2016      1.00000
      2     -45.1704      1.00000
      3     -45.1703      1.00000
      4       2.7077      1.00000
      5       5.1441      1.00000
      6       5.2059      1.00000
      7       6.5700      1.00000
      8       6.5867      1.00000
      9       7.3906      1.00000
     10       7.4532      1.00000
     11       7.6323      1.00000
     12       8.0307      1.00000
     13       8.0889      1.00000
     14       8.7508      1.00000
     15      13.3518      0.00000
     16      19.8971      0.00000
     17      20.3273      0.00000

 k-point    41 :       0.3438    0.0938    0.0938
  band No.  band energies     occupation 
      1     -45.2118      1.00000
      2     -45.1696      1.00000
      3     -45.1696      1.00000
      4       3.3266      1.00000
      5       5.2204      1.00000
      6       5.4402      1.00000
      7       6.5141      1.00000
      8       6.6102      1.00000
      9       7.1843      1.00000
     10       7.3289      1.00000
     11       7.8040      1.00000
     12       7.8307      1.00000
     13       8.1787      1.00000
     14       8.6241      1.00000
     15      11.9181      0.00000
     16      20.8078      0.00000
     17      21.2294      0.00000

 k-point    42 :       0.4063    0.0938    0.0938
  band No.  band energies     occupation 
      1     -45.2196      1.00000
      2     -45.1691      1.00000
      3     -45.1690      1.00000
      4       3.9588      1.00000
      5       5.1681      1.00000
      6       5.6945      1.00000
      7       6.3860      1.00000
      8       6.6914      1.00000
      9       7.0223      1.00000
     10       7.2595      1.00000
     11       7.6122      1.00000
     12       7.9748      1.00000
     13       8.4264      1.00000
     14       8.4870      1.00000
     15      10.6687     -0.00000
     16      21.7887      0.00000
     17      22.2389      0.00000

 k-point    43 :       0.4688    0.0938    0.0938
  band No.  band energies     occupation 
      1     -45.2238      1.00000
      2     -45.1688      1.00000
      3     -45.1687      1.00000
      4       4.5222      1.00000
      5       4.9384      1.00000
      6       5.9523      1.00000
      7       6.1923      1.00000
      8       6.7917      1.00000
      9       6.9102      1.00000
     10       7.2582      1.00000
     11       7.4644      1.00000
     12       8.1312      1.00000
     13       8.2951      1.00000
     14       8.9068      1.00000
     15       9.6699      1.00241
     16      22.8123      0.00000
     17      23.3412      0.00000

 k-point    44 :       0.1563    0.1563    0.0938
  band No.  band energies     occupation 
      1     -45.1801      1.00000
      2     -45.1792      1.00000
      3     -45.1713      1.00000
      4       2.0196      1.00000
      5       4.9397      1.00000
      6       4.9815      1.00000
      7       6.5329      1.00000
      8       6.6091      1.00000
      9       7.3908      1.00000
     10       7.7166      1.00000
     11       7.7323      1.00000
     12       7.8363      1.00000
     13       8.5173      1.00000
     14       8.8564      1.00000
     15      16.5186      0.00000
     16      17.4625      0.00000
     17      19.1768      0.00000

 k-point    45 :       0.2188    0.1563    0.0938
  band No.  band energies     occupation 
      1     -45.1898      1.00000
      2     -45.1788      1.00000
      3     -45.1705      1.00000
      4       2.4388      1.00000
      5       5.0634      1.00000
      6       5.1525      1.00000
      7       6.4600      1.00000
      8       6.5664      1.00000
      9       7.3685      1.00000
     10       7.6412      1.00000
     11       7.6684      1.00000
     12       7.8931      1.00000
     13       8.2913      1.00000
     14       8.8589      1.00000
     15      15.1913      0.00000
     16      17.7827      0.00000
     17      19.7502      0.00000

 k-point    46 :       0.2813    0.1563    0.0938
  band No.  band energies     occupation 
      1     -45.2008      1.00000
      2     -45.1780      1.00000
      3     -45.1697      1.00000
      4       2.9598      1.00000
      5       5.1905      1.00000
      6       5.3425      1.00000
      7       6.4170      1.00000
      8       6.5273      1.00000
      9       7.1246      1.00000
     10       7.5614      1.00000
     11       7.8439      1.00000
     12       7.9915      1.00000
     13       8.0470      1.00000
     14       8.8121      1.00000
     15      13.6550      0.00000
     16      18.4949      0.00000
     17      20.4829      0.00000

 k-point    47 :       0.3438    0.1563    0.0938
  band No.  band energies     occupation 
      1     -45.2109      1.00000
      2     -45.1772      1.00000
      3     -45.1690      1.00000
      4       3.5400      1.00000
      5       5.2599      1.00000
      6       5.5432      1.00000
      7       6.3782      1.00000
      8       6.5171      1.00000
      9       6.9285      1.00000
     10       7.4713      1.00000
     11       7.8220      1.00000
     12       8.0045      1.00000
     13       8.1979      1.00000
     14       8.7158      1.00000
     15      12.2125      0.00000
     16      19.3393      0.00000
     17      21.3399      0.00000

 k-point    48 :       0.4063    0.1563    0.0938
  band No.  band energies     occupation 
      1     -45.2187      1.00000
      2     -45.1766      1.00000
      3     -45.1684      1.00000
      4       4.1162      1.00000
      5       5.2012      1.00000
      6       5.7543      1.00000
      7       6.2921      1.00000
      8       6.5655      1.00000
      9       6.8047      1.00000
     10       7.4164      1.00000
     11       7.6559      1.00000
     12       8.1214      1.00000
     13       8.5325      1.00000
     14       8.5986      1.00000
     15      10.9365     -0.00000
     16      20.2797      0.00000
     17      22.2977      0.00000

 k-point    49 :       0.4688    0.1563    0.0938
  band No.  band energies     occupation 
      1     -45.2229      1.00000
      2     -45.1762      1.00000
      3     -45.1681      1.00000
      4       4.6148      1.00000
      5       4.9858      1.00000
      6       5.9631      1.00000
      7       6.1501      1.00000
      8       6.6448      1.00000
      9       6.7237      1.00000
     10       7.4008      1.00000
     11       7.5668      1.00000
     12       8.2556      1.00000
     13       8.4179      1.00000
     14       9.0826      1.00000
     15       9.8902      0.60530
     16      21.2986      0.00000
     17      22.4293      0.00000

 k-point    50 :       0.2188    0.2188    0.0938
  band No.  band energies     occupation 
      1     -45.1896      1.00000
      2     -45.1882      1.00000
      3     -45.1698      1.00000
      4       2.8311      1.00000
      5       5.1354      1.00000
      6       5.3514      1.00000
      7       6.3510      1.00000
      8       6.5259      1.00000
      9       7.0979      1.00000
     10       7.7018      1.00000
     11       7.8644      1.00000
     12       7.8766      1.00000
     13       8.1135      1.00000
     14       8.8929      1.00000
     15      15.0602      0.00000
     16      16.8473      0.00000
     17      20.2716      0.00000

 k-point    51 :       0.2813    0.2188    0.0938
  band No.  band energies     occupation 
      1     -45.1998      1.00000
      2     -45.1879      1.00000
      3     -45.1689      1.00000
      4       3.3061      1.00000
      5       5.1949      1.00000
      6       5.5730      1.00000
      7       6.2745      1.00000
      8       6.5108      1.00000
      9       6.8548      1.00000
     10       7.6680      1.00000
     11       7.9146      1.00000
     12       7.9427      1.00000
     13       8.1128      1.00000
     14       8.8851      1.00000
     15      13.9109      0.00000
     16      17.1134      0.00000
     17      20.9459      0.00000

 k-point    52 :       0.3438    0.2188    0.0938
  band No.  band energies     occupation 
      1     -45.2099      1.00000
      2     -45.1870      1.00000
      3     -45.1681      1.00000
      4       3.8122      1.00000
      5       5.2044      1.00000
      6       5.7862      1.00000
      7       6.2297      1.00000
      8       6.5259      1.00000
      9       6.6833      1.00000
     10       7.6086      1.00000
     11       7.7777      1.00000
     12       8.0318      1.00000
     13       8.3986      1.00000
     14       8.8226      1.00000
     15      12.5328      0.00000
     16      17.8294      0.00000
     17      21.7455      0.00000

 k-point    53 :       0.4063    0.2188    0.0938
  band No.  band energies     occupation 
      1     -45.2176      1.00000
      2     -45.1864      1.00000
      3     -45.1676      1.00000
      4       4.2832      1.00000
      5       5.1283      1.00000
      6       5.9643      1.00000
      7       6.2038      1.00000
      8       6.5432      1.00000
      9       6.6032      1.00000
     10       7.5671      1.00000
     11       7.7088      1.00000
     12       8.1629      1.00000
     13       8.6999      1.00000
     14       8.7769      1.00000
     15      11.2505     -0.00000
     16      18.7064      0.00000
     17      21.9964      0.00000

 k-point    54 :       0.4688    0.2188    0.0938
  band No.  band energies     occupation 
      1     -45.2217      1.00000
      2     -45.1860      1.00000
      3     -45.1672      1.00000
      4       4.6616      1.00000
      5       4.9568      1.00000
      6       6.0846      1.00000
      7       6.1785      1.00000
      8       6.5364      1.00000
      9       6.5889      1.00000
     10       7.5523      1.00000
     11       7.6936      1.00000
     12       8.3411      1.00000
     13       8.5446      1.00000
     14       9.3244      1.00000
     15      10.1650     -0.00066
     16      19.6919      0.00000
     17      20.8069      0.00000

 k-point    55 :       0.2813    0.2813    0.0938
  band No.  band energies     occupation 
      1     -45.1994      1.00000
      2     -45.1981      1.00000
      3     -45.1681      1.00000
      4       3.7016      1.00000
      5       5.1692      1.00000
      6       5.8407      1.00000
      7       6.1671      1.00000
      8       6.5581      1.00000
      9       6.6298      1.00000
     10       7.7065      1.00000
     11       7.8331      1.00000
     12       7.9175      1.00000
     13       8.3806      1.00000
     14       8.9207      1.00000
     15      13.6672      0.00000
     16      16.4141      0.00000
     17      21.5536      0.00000

 k-point    56 :       0.3438    0.2813    0.0938
  band No.  band energies     occupation 
      1     -45.2087      1.00000
      2     -45.1977      1.00000
      3     -45.1673      1.00000
      4       4.0851      1.00000
      5       5.1034      1.00000
      6       6.0727      1.00000
      7       6.1246      1.00000
      8       6.4547      1.00000
      9       6.6958      1.00000
     10       7.6648      1.00000
     11       7.8047      1.00000
     12       7.9831      1.00000
     13       8.6753      1.00000
     14       8.8980      1.00000
     15      12.6979      0.00000
     16      16.6554      0.00000
     17      21.7771      0.00000

 k-point    57 :       0.4063    0.2813    0.0938
  band No.  band energies     occupation 
      1     -45.2163      1.00000
      2     -45.1970      1.00000
      3     -45.1666      1.00000
      4       4.4027      1.00000
      5       4.9979      1.00000
      6       6.0638      1.00000
      7       6.2012      1.00000
      8       6.4814      1.00000
      9       6.8087      1.00000
     10       7.6537      1.00000
     11       7.8087      1.00000
     12       8.1367      1.00000
     13       8.8077      1.00000
     14       9.0450      1.00000
     15      11.5234     -0.00000
     16      17.3513      0.00000
     17      20.4843      0.00000

 k-point    58 :       0.4688    0.2813    0.0938
  band No.  band energies     occupation 
      1     -45.2204      1.00000
      2     -45.1966      1.00000
      3     -45.1663      1.00000
      4       4.6321      1.00000
      5       4.8668      1.00000
      6       6.0709      1.00000
      7       6.1448      1.00000
      8       6.6598      1.00000
      9       6.7967      1.00000
     10       7.6716      1.00000
     11       7.8145      1.00000
     12       8.3904      1.00000
     13       8.6459      1.00000
     14       9.5999      1.00008
     15      10.4480     -0.00000
     16      18.2491      0.00000
     17      19.3144      0.00000

 k-point    59 :       0.3438    0.3438    0.0938
  band No.  band energies     occupation 
      1     -45.2081      1.00000
      2     -45.2071      1.00000
      3     -45.1664      1.00000
      4       4.3056      1.00000
      5       4.9835      1.00000
      6       6.0009      1.00000
      7       6.2607      1.00000
      8       6.4455      1.00000
      9       6.9987      1.00000
     10       7.6774      1.00000
     11       7.8677      1.00000
     12       7.9560      1.00000
     13       8.9149      1.00000
     14       8.9777      1.00000
     15      12.4037      0.00000
     16      16.1503      0.00000
     17      20.3784      0.00000

 k-point    60 :       0.4063    0.3438    0.0938
  band No.  band energies     occupation 
      1     -45.2152      1.00000
      2     -45.2068      1.00000
      3     -45.1658      1.00000
      4       4.4605      1.00000
      5       4.8639      1.00000
      6       5.9530      1.00000
      7       6.1144      1.00000
      8       6.7649      1.00000
      9       7.2541      1.00000
     10       7.7151      1.00000
     11       7.9024      1.00000
     12       8.0713      1.00000
     13       8.8551      1.00000
     14       9.3471      1.00000
     15      11.6149     -0.00000
     16      16.3844      0.00000
     17      19.1136      0.00000

 k-point    61 :       0.4688    0.3438    0.0938
  band No.  band energies     occupation 
      1     -45.2192      1.00000
      2     -45.2063      1.00000
      3     -45.1655      1.00000
      4       4.5604      1.00000
      5       4.7682      1.00000
      6       5.9535      1.00000
      7       6.0127      1.00000
      8       7.0389      1.00000
      9       7.2306      1.00000
     10       7.7577      1.00000
     11       7.9078      1.00000
     12       8.3980      1.00000
     13       8.6970      1.00000
     14       9.8899      0.60787
     15      10.6856     -0.00000
     16      17.0583      0.00000
     17      18.0058      0.00000

 k-point    62 :       0.4063    0.4063    0.0938
  band No.  band energies     occupation 
      1     -45.2145      1.00000
      2     -45.2141      1.00000
      3     -45.1652      1.00000
      4       4.4820      1.00000
      5       4.7550      1.00000
      6       5.8813      1.00000
      7       5.9849      1.00000
      8       7.1298      1.00000
      9       7.7012      1.00000
     10       7.8019      1.00000
     11       7.9861      1.00000
     12       7.9881      1.00000
     13       8.8201      1.00000
     14       9.7076      1.00932
     15      11.3629     -0.00000
     16      16.0078      0.00000
     17      17.9176      0.00000

 k-point    63 :       0.4688    0.4063    0.0938
  band No.  band energies     occupation 
      1     -45.2183      1.00000
      2     -45.2138      1.00000
      3     -45.1648      1.00000
      4       4.4911      1.00000
      5       4.6914      1.00000
      6       5.8612      1.00000
      7       5.8972      1.00000
      8       7.4526      1.00000
      9       7.6995      1.00000
     10       7.8217      1.00000
     11       7.9671      1.00000
     12       8.3519      1.00000
     13       8.6695      1.00000
     14      10.1922     -0.00017
     15      10.8048     -0.00000
     16      16.2419      0.00000
     17      16.9450      0.00000

 k-point    64 :       0.4688    0.4688    0.0938
  band No.  band energies     occupation 
      1     -45.2179      1.00000
      2     -45.2178      1.00000
      3     -45.1645      1.00000
      4       4.4509      1.00000
      5       4.6501      1.00000
      6       5.8176      1.00000
      7       5.8297      1.00000
      8       7.7972      1.00000
      9       7.8356      1.00000
     10       7.9824      1.00000
     11       8.0246      1.00000
     12       8.3351      1.00000
     13       8.5355      1.00000
     14      10.4963     -0.00000
     15      10.7353     -0.00000
     16      15.9289      0.00000
     17      16.2349      0.00000

 k-point    65 :       0.1563    0.1563    0.1563
  band No.  band energies     occupation 
      1     -45.1798      1.00000
      2     -45.1786      1.00000
      3     -45.1786      1.00000
      4       2.3048      1.00000
      5       5.0697      1.00000
      6       5.0697      1.00000
      7       6.4914      1.00000
      8       6.4914      1.00000
      9       7.3547      1.00000
     10       7.6500      1.00000
     11       7.7859      1.00000
     12       7.7859      1.00000
     13       8.6532      1.00000
     14       8.6532      1.00000
     15      16.9837      0.00000
     16      16.9837      0.00000
     17      18.3878      0.00000

 k-point    66 :       0.2188    0.1563    0.1563
  band No.  band energies     occupation 
      1     -45.1892      1.00000
      2     -45.1785      1.00000
      3     -45.1779      1.00000
      4       2.7126      1.00000
      5       5.1957      1.00000
      6       5.2298      1.00000
      7       6.4043      1.00000
      8       6.4340      1.00000
      9       7.0760      1.00000
     10       7.7161      1.00000
     11       7.8583      1.00000
     12       7.8673      1.00000
     13       8.4044      1.00000
     14       8.7197      1.00000
     15      15.5417      0.00000
     16      17.6233      0.00000
     17      18.6678      0.00000

 k-point    67 :       0.2813    0.1563    0.1563
  band No.  band energies     occupation 
      1     -45.2001      1.00000
      2     -45.1775      1.00000
      3     -45.1772      1.00000
      4       3.2143      1.00000
      5       5.3517      1.00000
      6       5.3696      1.00000
      7       6.3634      1.00000
      8       6.3699      1.00000
      9       6.8356      1.00000
     10       7.6356      1.00000
     11       7.9487      1.00000
     12       8.1186      1.00000
     13       8.1496      1.00000
     14       8.7177      1.00000
     15      14.0003      0.00000
     16      18.3960      0.00000
     17      19.2534      0.00000

 k-point    68 :       0.3438    0.1563    0.1563
  band No.  band energies     occupation 
      1     -45.2102      1.00000
      2     -45.1766      1.00000
      3     -45.1765      1.00000
      4       3.7630      1.00000
      5       5.4166      1.00000
      6       5.5274      1.00000
      7       6.2788      1.00000
      8       6.4004      1.00000
      9       6.6920      1.00000
     10       7.5582      1.00000
     11       7.9206      1.00000
     12       8.0379      1.00000
     13       8.4231      1.00000
     14       8.6563      1.00000
     15      12.5542      0.00000
     16      19.2701      0.00000
     17      19.9967      0.00000

 k-point    69 :       0.4063    0.1563    0.1563
  band No.  band energies     occupation 
      1     -45.2179      1.00000
      2     -45.1760      1.00000
      3     -45.1759      1.00000
      4       4.2940      1.00000
      5       5.3198      1.00000
      6       5.7098      1.00000
      7       6.1752      1.00000
      8       6.4869      1.00000
      9       6.6548      1.00000
     10       7.5013      1.00000
     11       7.7422      1.00000
     12       8.1349      1.00000
     13       8.5419      1.00000
     14       8.8265      1.00000
     15      11.2714     -0.00000
     16      20.2236      0.00000
     17      20.8715      0.00000

 k-point    70 :       0.4688    0.1563    0.1563
  band No.  band energies     occupation 
      1     -45.2220      1.00000
      2     -45.1757      1.00000
      3     -45.1755      1.00000
      4       4.7419      1.00000
      5       5.0937      1.00000
      6       5.8829      1.00000
      7       6.0484      1.00000
      8       6.5801      1.00000
      9       6.6550      1.00000
     10       7.4769      1.00000
     11       7.6384      1.00000
     12       8.2488      1.00000
     13       8.4096      1.00000
     14       9.3885      1.00000
     15      10.2097     -0.00006
     16      21.2397      0.00000
     17      21.8658      0.00000

 k-point    71 :       0.2188    0.2188    0.1563
  band No.  band energies     occupation 
      1     -45.1888      1.00000
      2     -45.1877      1.00000
      3     -45.1774      1.00000
      4       3.0992      1.00000
      5       5.2895      1.00000
      6       5.4067      1.00000
      7       6.3014      1.00000
      8       6.3667      1.00000
      9       6.7887      1.00000
     10       7.7546      1.00000
     11       7.8552      1.00000
     12       8.1214      1.00000
     13       8.3088      1.00000
     14       8.6874      1.00000
     15      15.5380      0.00000
     16      16.8505      0.00000
     17      18.8353      0.00000

 k-point    72 :       0.2813    0.2188    0.1563
  band No.  band energies     occupation 
      1     -45.1991      1.00000
      2     -45.1873      1.00000
      3     -45.1765      1.00000
      4       3.5632      1.00000
      5       5.3669      1.00000
      6       5.5947      1.00000
      7       6.2245      1.00000
      8       6.3282      1.00000
      9       6.5683      1.00000
     10       7.7196      1.00000
     11       7.9201      1.00000
     12       8.1091      1.00000
     13       8.4075      1.00000
     14       8.6936      1.00000
     15      14.3393      0.00000
     16      17.2200      0.00000
     17      19.3938      0.00000

 k-point    73 :       0.3438    0.2188    0.1563
  band No.  band energies     occupation 
      1     -45.2091      1.00000
      2     -45.1864      1.00000
      3     -45.1757      1.00000
      4       4.0490      1.00000
      5       5.3895      1.00000
      6       5.7343      1.00000
      7       6.1652      1.00000
      8       6.3441      1.00000
      9       6.4817      1.00000
     10       7.6651      1.00000
     11       7.9244      1.00000
     12       8.0121      1.00000
     13       8.6507      1.00000
     14       8.7388      1.00000
     15      12.9440      0.00000
     16      17.9795      0.00000
     17      20.1155      0.00000

 k-point    74 :       0.4063    0.2188    0.1563
  band No.  band energies     occupation 
      1     -45.2168      1.00000
      2     -45.1857      1.00000
      3     -45.1751      1.00000
      4       4.4881      1.00000
      5       5.3025      1.00000
      6       5.8321      1.00000
      7       6.1023      1.00000
      8       6.4178      1.00000
      9       6.5295      1.00000
     10       7.6198      1.00000
     11       7.7992      1.00000
     12       8.1152      1.00000
     13       8.5564      1.00000
     14       9.1586      1.00000
     15      11.6654     -0.00000
     16      18.8720      0.00000
     17      20.9678      0.00000

 k-point    75 :       0.4688    0.2188    0.1563
  band No.  band energies     occupation 
      1     -45.2209      1.00000
      2     -45.1854      1.00000
      3     -45.1748      1.00000
      4       4.8289      1.00000
      5       5.1247      1.00000
      6       5.9140      1.00000
      7       6.0388      1.00000
      8       6.4908      1.00000
      9       6.5958      1.00000
     10       7.5951      1.00000
     11       7.7401      1.00000
     12       8.2406      1.00000
     13       8.4250      1.00000
     14       9.7479      1.02542
     15      10.5876     -0.00000
     16      19.8627      0.00000
     17      20.9775      0.00000

 k-point    76 :       0.2813    0.2813    0.1563
  band No.  band energies     occupation 
      1     -45.1986      1.00000
      2     -45.1975      1.00000
      3     -45.1756      1.00000
      4       3.9587      1.00000
      5       5.3473      1.00000
      6       5.8488      1.00000
      7       6.1232      1.00000
      8       6.3211      1.00000
      9       6.3813      1.00000
     10       7.7700      1.00000
     11       7.9129      1.00000
     12       7.9942      1.00000
     13       8.7019      1.00000
     14       8.7237      1.00000
     15      14.1887      0.00000
     16      16.4808      0.00000
     17      19.9205      0.00000

 k-point    77 :       0.3438    0.2813    0.1563
  band No.  band energies     occupation 
      1     -45.2080      1.00000
      2     -45.1971      1.00000
      3     -45.1748      1.00000
      4       4.3322      1.00000
      5       5.2831      1.00000
      6       6.0012      1.00000
      7       6.0824      1.00000
      8       6.2906      1.00000
      9       6.4496      1.00000
     10       7.7495      1.00000
     11       7.8959      1.00000
     12       7.9752      1.00000
     13       8.6743      1.00000
     14       9.0793      1.00000
     15      13.2108      0.00000
     16      16.7669      0.00000
     17      20.6033      0.00000

 k-point    78 :       0.4063    0.2813    0.1563
  band No.  band energies     occupation 
      1     -45.2156      1.00000
      2     -45.1964      1.00000
      3     -45.1742      1.00000
      4       4.6245      1.00000
      5       5.1773      1.00000
      6       5.9768      1.00000
      7       6.0582      1.00000
      8       6.4494      1.00000
      9       6.6010      1.00000
     10       7.7171      1.00000
     11       7.8522      1.00000
     12       8.0761      1.00000
     13       8.5861      1.00000
     14       9.5224      1.00000
     15      12.0359      0.00000
     16      17.5004      0.00000
     17      20.6695      0.00000

 k-point    79 :       0.4688    0.2813    0.1563
  band No.  band energies     occupation 
      1     -45.2197      1.00000
      2     -45.1960      1.00000
      3     -45.1739      1.00000
      4       4.8188      1.00000
      5       5.0582      1.00000
      6       5.9533      1.00000
      7       6.0386      1.00000
      8       6.5913      1.00000
      9       6.6972      1.00000
     10       7.7045      1.00000
     11       7.8429      1.00000
     12       8.2252      1.00000
     13       8.4421      1.00000
     14      10.1320     -0.00278
     15      10.9777     -0.00000
     16      18.4178      0.00000
     17      19.4935      0.00000

 k-point    80 :       0.3438    0.3438    0.1563
  band No.  band energies     occupation 
      1     -45.2074      1.00000
      2     -45.2066      1.00000
      3     -45.1740      1.00000
      4       4.5467      1.00000
      5       5.1610      1.00000
      6       5.9592      1.00000
      7       6.1140      1.00000
      8       6.4023      1.00000
      9       6.6696      1.00000
     10       7.7712      1.00000
     11       7.9084      1.00000
     12       7.9576      1.00000
     13       8.6630      1.00000
     14       9.4588      1.00000
     15      13.0081      0.00000
     16      16.2216      0.00000
     17      20.5661      0.00000

 k-point    81 :       0.4063    0.3438    0.1563
  band No.  band energies     occupation 
      1     -45.2145      1.00000
      2     -45.2062      1.00000
      3     -45.1734      1.00000
      4       4.6778      1.00000
      5       5.0468      1.00000
      6       5.9117      1.00000
      7       6.0167      1.00000
      8       6.6895      1.00000
      9       6.9290      1.00000
     10       7.7741      1.00000
     11       7.9166      1.00000
     12       8.0230      1.00000
     13       8.5849      1.00000
     14       9.9199      0.35773
     15      12.2454      0.00000
     16      16.4843      0.00000
     17      19.2932      0.00000

 k-point    82 :       0.4688    0.3438    0.1563
  band No.  band energies     occupation 
      1     -45.2186      1.00000
      2     -45.2058      1.00000
      3     -45.1730      1.00000
      4       4.7487      1.00000
      5       4.9665      1.00000
      6       5.8991      1.00000
      7       5.9515      1.00000
      8       6.9173      1.00000
      9       7.0269      1.00000
     10       7.7851      1.00000
     11       7.9277      1.00000
     12       8.1850      1.00000
     13       8.4311      1.00000
     14      10.5312     -0.00000
     15      11.3323     -0.00000
     16      17.1964      0.00000
     17      18.1689      0.00000

 k-point    83 :       0.4063    0.4063    0.1563
  band No.  band energies     occupation 
      1     -45.2139      1.00000
      2     -45.2135      1.00000
      3     -45.1728      1.00000
      4       4.6828      1.00000
      5       4.9462      1.00000
      6       5.8509      1.00000
      7       5.9268      1.00000
      8       7.0107      1.00000
      9       7.3066      1.00000
     10       7.8122      1.00000
     11       7.9638      1.00000
     12       7.9880      1.00000
     13       8.5153      1.00000
     14      10.3810     -0.00000
     15      12.0920      0.00000
     16      16.0773      0.00000
     17      18.0790      0.00000

 k-point    84 :       0.4688    0.4063    0.1563
  band No.  band energies     occupation 
      1     -45.2178      1.00000
      2     -45.2133      1.00000
      3     -45.1724      1.00000
      4       4.6769      1.00000
      5       4.8917      1.00000
      6       5.8303      1.00000
      7       5.8598      1.00000
      8       7.2903      1.00000
      9       7.4459      1.00000
     10       7.8371      1.00000
     11       7.9842      1.00000
     12       8.0992      1.00000
     13       8.3587      1.00000
     14      10.9404     -0.00000
     15      11.5706     -0.00000
     16      16.3354      0.00000
     17      17.0756      0.00000

 k-point    85 :       0.4688    0.4688    0.1563
  band No.  band energies     occupation 
      1     -45.2173      1.00000
      2     -45.2173      1.00000
      3     -45.1721      1.00000
      4       4.6349      1.00000
      5       4.8508      1.00000
      6       5.7936      1.00000
      7       5.8033      1.00000
      8       7.6195      1.00000
      9       7.7640      1.00000
     10       7.8647      1.00000
     11       7.9919      1.00000
     12       8.0115      1.00000
     13       8.2056      1.00000
     14      11.3255     -0.00000
     15      11.5770     -0.00000
     16      15.9995      0.00000
     17      16.3229      0.00000

 k-point    86 :       0.2188    0.2188    0.2188
  band No.  band energies     occupation 
      1     -45.1882      1.00000
      2     -45.1870      1.00000
      3     -45.1870      1.00000
      4       3.4743      1.00000
      5       5.4830      1.00000
      6       5.4830      1.00000
      7       6.2364      1.00000
      8       6.2364      1.00000
      9       6.4984      1.00000
     10       7.8234      1.00000
     11       7.8234      1.00000
     12       8.4199      1.00000
     13       8.4467      1.00000
     14       8.4467      1.00000
     15      16.1879      0.00000
     16      16.1879      0.00000
     17      18.1828      0.00000

 k-point    87 :       0.2813    0.2188    0.2188
  band No.  band energies     occupation 
      1     -45.1982      1.00000
      2     -45.1866      1.00000
      3     -45.1862      1.00000
      4       3.9158      1.00000
      5       5.5728      1.00000
      6       5.6386      1.00000
      7       6.1640      1.00000
      8       6.1721      1.00000
      9       6.2983      1.00000
     10       7.7831      1.00000
     11       7.9021      1.00000
     12       8.2140      1.00000
     13       8.5155      1.00000
     14       8.7470      1.00000
     15      14.8369      0.00000
     16      16.9686      0.00000
     17      18.4286      0.00000

 k-point    88 :       0.3438    0.2188    0.2188
  band No.  band energies     occupation 
      1     -45.2082      1.00000
      2     -45.1856      1.00000
      3     -45.1856      1.00000
      4       4.3588      1.00000
      5       5.6158      1.00000
      6       5.6668      1.00000
      7       6.0912      1.00000
      8       6.1873      1.00000
      9       6.3171      1.00000
     10       7.7392      1.00000
     11       7.9860      1.00000
     12       8.0200      1.00000
     13       8.5143      1.00000
     14       9.1194      1.00000
     15      13.4341      0.00000
     16      17.8515      0.00000
     17      18.9859      0.00000

 k-point    89 :       0.4063    0.2188    0.2188
  band No.  band energies     occupation 
      1     -45.2158      1.00000
      2     -45.1850      1.00000
      3     -45.1849      1.00000
      4       4.7293      1.00000
      5       5.4535      1.00000
      6       5.7551      1.00000
      7       6.0227      1.00000
      8       6.2938      1.00000
      9       6.4594      1.00000
     10       7.6990      1.00000
     11       7.8847      1.00000
     12       8.0769      1.00000
     13       8.4510      1.00000
     14       9.5842      1.00003
     15      12.1552      0.00000
     16      18.8190      0.00000
     17      19.7238      0.00000

 k-point    90 :       0.4688    0.2188    0.2188
  band No.  band energies     occupation 
      1     -45.2199      1.00000
      2     -45.1847      1.00000
      3     -45.1844      1.00000
      4       4.9891      1.00000
      5       5.2744      1.00000
      6       5.8230      1.00000
      7       5.9670      1.00000
      8       6.4053      1.00000
      9       6.5627      1.00000
     10       7.6733      1.00000
     11       7.8174      1.00000
     12       8.1763      1.00000
     13       8.3520      1.00000
     14      10.2122     -0.00005
     15      11.0701     -0.00000
     16      19.8596      0.00000
     17      20.6126      0.00000

 k-point    91 :       0.2813    0.2813    0.2188
  band No.  band energies     occupation 
      1     -45.1976      1.00000
      2     -45.1968      1.00000
      3     -45.1855      1.00000
      4       4.3116      1.00000
      5       5.5887      1.00000
      6       5.8530      1.00000
      7       6.0713      1.00000
      8       6.0817      1.00000
      9       6.1522      1.00000
     10       7.8266      1.00000
     11       7.9034      1.00000
     12       8.1497      1.00000
     13       8.4649      1.00000
     14       9.1163      1.00000
     15      14.8814      0.00000
     16      16.4046      0.00000
     17      18.5669      0.00000

 k-point    92 :       0.3438    0.2813    0.2188
  band No.  band energies     occupation 
      1     -45.2071      1.00000
      2     -45.1963      1.00000
      3     -45.1847      1.00000
      4       4.6676      1.00000
      5       5.5167      1.00000
      6       5.8887      1.00000
      7       6.0092      1.00000
      8       6.1439      1.00000
      9       6.2495      1.00000
     10       7.8098      1.00000
     11       7.9595      1.00000
     12       8.0252      1.00000
     13       8.4556      1.00000
     14       9.5315      1.00000
     15      13.8489      0.00000
     16      16.8660      0.00000
     17      19.1176      0.00000

 k-point    93 :       0.4063    0.2813    0.2188
  band No.  band energies     occupation 
      1     -45.2147      1.00000
      2     -45.1956      1.00000
      3     -45.1841      1.00000
      4       4.9104      1.00000
      5       5.3954      1.00000
      6       5.8510      1.00000
      7       5.9790      1.00000
      8       6.3036      1.00000
      9       6.4572      1.00000
     10       7.7788      1.00000
     11       7.9356      1.00000
     12       8.0409      1.00000
     13       8.4007      1.00000
     14      10.0377     -0.03346
     15      12.6430      0.00000
     16      17.6962      0.00000
     17      19.8633      0.00000

 k-point    94 :       0.4688    0.2813    0.2188
  band No.  band energies     occupation 
      1     -45.2188      1.00000
      2     -45.1952      1.00000
      3     -45.1837      1.00000
      4       5.0411      1.00000
      5       5.2896      1.00000
      6       5.8365      1.00000
      7       5.9657      1.00000
      8       6.4380      1.00000
      9       6.5956      1.00000
     10       7.7582      1.00000
     11       7.8994      1.00000
     12       8.1292      1.00000
     13       8.3094      1.00000
     14      10.6996     -0.00000
     15      11.5707     -0.00000
     16      18.6613      0.00000
     17      19.7562      0.00000

 k-point    95 :       0.3438    0.3438    0.2188
  band No.  band energies     occupation 
      1     -45.2064      1.00000
      2     -45.2059      1.00000
      3     -45.1839      1.00000
      4       4.8787      1.00000
      5       5.3898      1.00000
      6       5.9076      1.00000
      7       5.9683      1.00000
      8       6.3350      1.00000
      9       6.3534      1.00000
     10       7.8421      1.00000
     11       7.9569      1.00000
     12       7.9948      1.00000
     13       8.4267      1.00000
     14       9.9879     -0.00206
     15      13.7739      0.00000
     16      16.2978      0.00000
     17      19.6746      0.00000

 k-point    96 :       0.4063    0.3438    0.2188
  band No.  band energies     occupation 
      1     -45.2137      1.00000
      2     -45.2054      1.00000
      3     -45.1833      1.00000
      4       4.9677      1.00000
      5       5.2854      1.00000
      6       5.8589      1.00000
      7       5.9301      1.00000
      8       6.5504      1.00000
      9       6.6121      1.00000
     10       7.8333      1.00000
     11       7.9691      1.00000
     12       8.0084      1.00000
     13       8.3652      1.00000
     14      10.5285     -0.00000
     15      12.9966      0.00000
     16      16.6366      0.00000
     17      19.5735      0.00000

 k-point    97 :       0.4688    0.3438    0.2188
  band No.  band energies     occupation 
      1     -45.2178      1.00000
      2     -45.2050      1.00000
      3     -45.1829      1.00000
      4       4.9928      1.00000
      5       5.2258      1.00000
      6       5.8335      1.00000
      7       5.9041      1.00000
      8       6.7050      1.00000
      9       6.7841      1.00000
     10       7.8258      1.00000
     11       7.9683      1.00000
     12       8.0806      1.00000
     13       8.2679      1.00000
     14      11.2061     -0.00000
     15      12.0487      0.00000
     16      17.4185      0.00000
     17      18.4286      0.00000

 k-point    98 :       0.4063    0.4063    0.2188
  band No.  band energies     occupation 
      1     -45.2131      1.00000
      2     -45.2128      1.00000
      3     -45.1827      1.00000
      4       4.9501      1.00000
      5       5.2035      1.00000
      6       5.8154      1.00000
      7       5.8716      1.00000
      8       6.8272      1.00000
      9       6.8882      1.00000
     10       7.8593      1.00000
     11       7.9843      1.00000
     12       8.0050      1.00000
     13       8.3001      1.00000
     14      11.0837     -0.00000
     15      12.9484      0.00000
     16      16.1887      0.00000
     17      18.3404      0.00000

 k-point    99 :       0.4688    0.4063    0.2188
  band No.  band energies     occupation 
      1     -45.2170      1.00000
      2     -45.2125      1.00000
      3     -45.1823      1.00000
      4       4.9259      1.00000
      5       5.1609      1.00000
      6       5.7949      1.00000
      7       5.8250      1.00000
      8       7.0242      1.00000
      9       7.0690      1.00000
     10       7.8692      1.00000
     11       8.0111      1.00000
     12       8.0232      1.00000
     13       8.2038      1.00000
     14      11.7261     -0.00000
     15      12.4174      0.00000
     16      16.4951      0.00000
     17      17.2946      0.00000

 k-point   100 :       0.4688    0.4688    0.2188
  band No.  band energies     occupation 
      1     -45.2166      1.00000
      2     -45.2166      1.00000
      3     -45.1820      1.00000
      4       4.8850      1.00000
      5       5.1236      1.00000
      6       5.7673      1.00000
      7       5.7759      1.00000
      8       7.2528      1.00000
      9       7.2814      1.00000
     10       7.8897      1.00000
     11       7.9622      1.00000
     12       8.0400      1.00000
     13       8.1276      1.00000
     14      12.2112      0.00000
     15      12.5009      0.00000
     16      16.1225      0.00000
     17      16.4774      0.00000

 k-point   101 :       0.2813    0.2813    0.2813
  band No.  band energies     occupation 
      1     -45.1967      1.00000
      2     -45.1961      1.00000
      3     -45.1961      1.00000
      4       4.7040      1.00000
      5       5.8456      1.00000
      6       5.8456      1.00000
      7       5.8584      1.00000
      8       6.0248      1.00000
      9       6.0248      1.00000
     10       7.8876      1.00000
     11       7.8876      1.00000
     12       8.2555      1.00000
     13       8.2555      1.00000
     14       9.5426      1.00000
     15      15.7006      0.00000
     16      15.7006      0.00000
     17      18.0509      0.00000

 k-point   102 :       0.3438    0.2813    0.2813
  band No.  band energies     occupation 
      1     -45.2062      1.00000
      2     -45.1954      1.00000
      3     -45.1953      1.00000
      4       5.0244      1.00000
      5       5.6653      1.00000
      6       5.8245      1.00000
      7       5.9707      1.00000
      8       5.9932      1.00000
      9       6.1813      1.00000
     10       7.8650      1.00000
     11       7.9491      1.00000
     12       8.0991      1.00000
     13       8.2995      1.00000
     14      10.0172     -0.03433
     15      14.4957      0.00000
     16      16.6194      0.00000
     17      18.2953      0.00000

 k-point   103 :       0.4063    0.2813    0.2813
  band No.  band energies     occupation 
      1     -45.2137      1.00000
      2     -45.1948      1.00000
      3     -45.1947      1.00000
      4       5.1700      1.00000
      5       5.5246      1.00000
      6       5.7992      1.00000
      7       5.9754      1.00000
      8       6.1501      1.00000
      9       6.4038      1.00000
     10       7.8386      1.00000
     11       8.0044      1.00000
     12       8.0103      1.00000
     13       8.2840      1.00000
     14      10.5813     -0.00000
     15      13.2731      0.00000
     16      17.6229      0.00000
     17      18.8629      0.00000

 k-point   104 :       0.4688    0.2813    0.2813
  band No.  band energies     occupation 
      1     -45.2178      1.00000
      2     -45.1945      1.00000
      3     -45.1942      1.00000
      4       5.2046      1.00000
      5       5.4479      1.00000
      6       5.7830      1.00000
      7       5.9672      1.00000
      8       6.3198      1.00000
      9       6.5360      1.00000
     10       7.8192      1.00000
     11       7.9634      1.00000
     12       8.0682      1.00000
     13       8.2348      1.00000
     14      11.2906     -0.00000
     15      12.1887      0.00000
     16      18.7026      0.00000
     17      19.6294      0.00000

 k-point   105 :       0.3438    0.3438    0.2813
  band No.  band energies     occupation 
      1     -45.2054      1.00000
      2     -45.2051      1.00000
      3     -45.1946      1.00000
      4       5.2482      1.00000
      5       5.5894      1.00000
      6       5.8560      1.00000
      7       5.8937      1.00000
      8       6.1115      1.00000
      9       6.2481      1.00000
     10       7.8948      1.00000
     11       7.9507      1.00000
     12       8.0809      1.00000
     13       8.2478      1.00000
     14      10.5493     -0.00000
     15      14.6541      0.00000
     16      16.2305      0.00000
     17      18.4535      0.00000

 k-point   106 :       0.4063    0.3438    0.2813
  band No.  band energies     occupation 
      1     -45.2128      1.00000
      2     -45.2046      1.00000
      3     -45.1939      1.00000
      4       5.2636      1.00000
      5       5.5163      1.00000
      6       5.8084      1.00000
      7       5.9266      1.00000
      8       6.2833      1.00000
      9       6.4512      1.00000
     10       7.8831      1.00000
     11       7.9842      1.00000
     12       8.0395      1.00000
     13       8.2241      1.00000
     14      11.1634     -0.00000
     15      13.8083      0.00000
     16      16.7961      0.00000
     17      19.0426      0.00000

 k-point   107 :       0.4688    0.3438    0.2813
  band No.  band energies     occupation 
      1     -45.2169      1.00000
      2     -45.2042      1.00000
      3     -45.1936      1.00000
      4       5.2346      1.00000
      5       5.4716      1.00000
      6       5.7843      1.00000
      7       5.9228      1.00000
      8       6.4448      1.00000
      9       6.5902      1.00000
     10       7.8702      1.00000
     11       8.0141      1.00000
     12       8.0259      1.00000
     13       8.1872      1.00000
     14      11.9042      0.00000
     15      12.7982      0.00000
     16      17.7139      0.00000
     17      18.7816      0.00000

 k-point   108 :       0.4063    0.4063    0.2813
  band No.  band energies     occupation 
      1     -45.2122      1.00000
      2     -45.2120      1.00000
      3     -45.1933      1.00000
      4       5.2325      1.00000
      5       5.4794      1.00000
      6       5.7848      1.00000
      7       5.8658      1.00000
      8       6.5371      1.00000
      9       6.6065      1.00000
     10       7.9018      1.00000
     11       7.9743      1.00000
     12       8.0519      1.00000
     13       8.1826      1.00000
     14      11.8086     -0.00000
     15      13.8964      0.00000
     16      16.3319      0.00000
     17      18.7149      0.00000

 k-point   109 :       0.4688    0.4063    0.2813
  band No.  band energies     occupation 
      1     -45.2162      1.00000
      2     -45.2117      1.00000
      3     -45.1930      1.00000
      4       5.1986      1.00000
      5       5.4489      1.00000
      6       5.7682      1.00000
      7       5.8248      1.00000
      8       6.6981      1.00000
      9       6.7446      1.00000
     10       7.9030      1.00000
     11       7.9816      1.00000
     12       8.0542      1.00000
     13       8.1461      1.00000
     14      12.5378      0.00000
     15      13.3165      0.00000
     16      16.7387      0.00000
     17      17.6235      0.00000

 k-point   110 :       0.4688    0.4688    0.2813
  band No.  band energies     occupation 
      1     -45.2158      1.00000
      2     -45.2158      1.00000
      3     -45.1927      1.00000
      4       5.1686      1.00000
      5       5.4309      1.00000
      6       5.7485      1.00000
      7       5.7626      1.00000
      8       6.8708      1.00000
      9       6.8742      1.00000
     10       7.9172      1.00000
     11       7.9533      1.00000
     12       8.0704      1.00000
     13       8.1152      1.00000
     14      13.1413      0.00000
     15      13.4953      0.00000
     16      16.3158      0.00000
     17      16.7248      0.00000

 k-point   111 :       0.3438    0.3438    0.3438
  band No.  band energies     occupation 
      1     -45.2045      1.00000
      2     -45.2044      1.00000
      3     -45.2044      1.00000
      4       5.4492      1.00000
      5       5.7722      1.00000
      6       5.8135      1.00000
      7       5.8135      1.00000
      8       6.1543      1.00000
      9       6.1543      1.00000
     10       7.9369      1.00000
     11       7.9369      1.00000
     12       8.1358      1.00000
     13       8.1358      1.00000
     14      11.1542     -0.00000
     15      15.6254      0.00000
     16      15.6254      0.00000
     17      18.0181      0.00000

 k-point   112 :       0.4063    0.3438    0.3438
  band No.  band energies     occupation 
      1     -45.2120      1.00000
      2     -45.2038      1.00000
      3     -45.2038      1.00000
      4       5.4213      1.00000
      5       5.6687      1.00000
      6       5.7862      1.00000
      7       6.0728      1.00000
      8       6.0878      1.00000
      9       6.3509      1.00000
     10       7.9190      1.00000
     11       7.9684      1.00000
     12       8.0797      1.00000
     13       8.1533      1.00000
     14      11.8335     -0.00000
     15      14.5967      0.00000
     16      16.6756      0.00000
     17      18.3003      0.00000

 k-point   113 :       0.4688    0.3438    0.3438
  band No.  band energies     occupation 
      1     -45.2161      1.00000
      2     -45.2036      1.00000
      3     -45.2034      1.00000
      4       5.3873      1.00000
      5       5.5970      1.00000
      6       5.7744      1.00000
      7       6.0244      1.00000
      8       6.2793      1.00000
      9       6.4789      1.00000
     10       7.9067      1.00000
     11       7.9878      1.00000
     12       8.0583      1.00000
     13       8.1479      1.00000
     14      12.6250      0.00000
     15      13.5528      0.00000
     16      17.7984      0.00000
     17      18.9147      0.00000

 k-point   114 :       0.4063    0.4063    0.3438
  band No.  band energies     occupation 
      1     -45.2114      1.00000
      2     -45.2113      1.00000
      3     -45.2032      1.00000
      4       5.4374      1.00000
      5       5.6910      1.00000
      6       5.7685      1.00000
      7       5.9925      1.00000
      8       6.2811      1.00000
      9       6.3893      1.00000
     10       7.9327      1.00000
     11       7.9608      1.00000
     12       8.0893      1.00000
     13       8.1306      1.00000
     14      12.5614      0.00000
     15      14.9215      0.00000
     16      16.4036      0.00000
     17      18.5233      0.00000

 k-point   115 :       0.4688    0.4063    0.3438
  band No.  band energies     occupation 
      1     -45.2154      1.00000
      2     -45.2110      1.00000
      3     -45.2029      1.00000
      4       5.4328      1.00000
      5       5.6445      1.00000
      6       5.7671      1.00000
      7       5.9376      1.00000
      8       6.4069      1.00000
      9       6.4917      1.00000
     10       7.9295      1.00000
     11       7.9648      1.00000
     12       8.0847      1.00000
     13       8.1257      1.00000
     14      13.3702      0.00000
     15      14.2442      0.00000
     16      17.0551      0.00000
     17      18.0658      0.00000

 k-point   116 :       0.4688    0.4688    0.3438
  band No.  band energies     occupation 
      1     -45.2151      1.00000
      2     -45.2151      1.00000
      3     -45.2026      1.00000
      4       5.4403      1.00000
      5       5.6851      1.00000
      6       5.7471      1.00000
      7       5.8190      1.00000
      8       6.5409      1.00000
      9       6.5521      1.00000
     10       7.9384      1.00000
     11       7.9524      1.00000
     12       8.0953      1.00000
     13       8.1146      1.00000
     14      14.1035      0.00000
     15      14.5553      0.00000
     16      16.5911      0.00000
     17      17.0941      0.00000

 k-point   117 :       0.4063    0.4063    0.4063
  band No.  band energies     occupation 
      1     -45.2108      1.00000
      2     -45.2108      1.00000
      3     -45.2107      1.00000
      4       5.5231      1.00000
      5       5.7723      1.00000
      6       5.7723      1.00000
      7       6.1767      1.00000
      8       6.2103      1.00000
      9       6.2103      1.00000
     10       7.9501      1.00000
     11       7.9501      1.00000
     12       8.1106      1.00000
     13       8.1106      1.00000
     14      13.3596      0.00000
     15      16.0163      0.00000
     16      16.0163      0.00000
     17      18.1070      0.00000

 k-point   118 :       0.4688    0.4063    0.4063
  band No.  band energies     occupation 
      1     -45.2148      1.00000
      2     -45.2105      1.00000
      3     -45.2104      1.00000
      4       5.5699      1.00000
      5       5.7211      1.00000
      6       5.7888      1.00000
      7       6.1009      1.00000
      8       6.2270      1.00000
      9       6.3389      1.00000
     10       7.9449      1.00000
     11       7.9567      1.00000
     12       8.1040      1.00000
     13       8.1182      1.00000
     14      14.2244      0.00000
     15      15.1514      0.00000
     16      17.1761      0.00000
     17      18.4002      0.00000

 k-point   119 :       0.4688    0.4688    0.4063
  band No.  band energies     occupation 
      1     -45.2145      1.00000
      2     -45.2145      1.00000
      3     -45.2101      1.00000
      4       5.6418      1.00000
      5       5.7680      1.00000
      6       5.7693      1.00000
      7       6.0225      1.00000
      8       6.3009      1.00000
      9       6.3050      1.00000
     10       7.9504      1.00000
     11       7.9536      1.00000
     12       8.1111      1.00000
     13       8.1165      1.00000
     14      15.0840      0.00000
     15      15.6775      0.00000
     16      16.9054      0.00000
     17      17.5943      0.00000

 k-point   120 :       0.4688    0.4688    0.4688
  band No.  band energies     occupation 
      1     -45.2142      1.00000
      2     -45.2142      1.00000
      3     -45.2142      1.00000
      4       5.7491      1.00000
      5       5.8046      1.00000
      6       5.8046      1.00000
      7       6.1548      1.00000
      8       6.1548      1.00000
      9       6.1782      1.00000
     10       7.9547      1.00000
     11       7.9547      1.00000
     12       8.1179      1.00000
     13       8.1179      1.00000
     14      16.0579      0.00000
     15      16.8586      0.00000
     16      16.8586      0.00000
     17      18.1046      0.00000
 Fermi energy:         9.9027825711

 spin component 2

 k-point     1 :       0.0313    0.0313    0.0313
  band No.  band energies     occupation 
      1     -41.9473      1.00000
      2     -41.9472      1.00000
      3     -41.9472      1.00000
      4       1.1063      1.00000
      5       6.4533      1.00000
      6       6.4533      1.00000
      7       8.6994      1.00000
      8       8.6994      1.00000
      9       8.7446      1.00000
     10      10.6613     -0.00000
     11      10.6614     -0.00000
     12      11.2563     -0.00000
     13      11.3380     -0.00000
     14      11.3381     -0.00000
     15      19.0022      0.00000
     16      19.0022      0.00000
     17      19.0860      0.00000

 k-point     2 :       0.0938    0.0313    0.0313
  band No.  band energies     occupation 
      1     -41.9523      1.00000
      2     -41.9469      1.00000
      3     -41.9468      1.00000
      4       1.2638      1.00000
      5       6.5008      1.00000
      6       6.5274      1.00000
      7       8.6718      1.00000
      8       8.6893      1.00000
      9       8.8020      1.00000
     10      10.5821     -0.00000
     11      10.6928     -0.00000
     12      11.0717     -0.00000
     13      11.1842     -0.00000
     14      11.3307     -0.00000
     15      18.1072      0.00000
     16      19.3241      0.00000
     17      19.3853      0.00000

 k-point     3 :       0.1563    0.0313    0.0313
  band No.  band energies     occupation 
      1     -41.9616      1.00000
      2     -41.9463      1.00000
      3     -41.9462      1.00000
      4       1.5745      1.00000
      5       6.5783      1.00000
      6       6.6733      1.00000
      7       8.6486      1.00000
      8       8.6730      1.00000
      9       8.8860      1.00000
     10      10.4264     -0.00000
     11      10.7508     -0.00000
     12      10.8008     -0.00000
     13      10.9180     -0.00000
     14      11.2608     -0.00000
     15      16.7844      0.00000
     16      19.9249      0.00000
     17      19.9794      0.00000

 k-point     4 :       0.2188    0.0313    0.0313
  band No.  band energies     occupation 
      1     -41.9738      1.00000
      2     -41.9454      1.00000
      3     -41.9454      1.00000
      4       2.0296      1.00000
      5       6.6485      1.00000
      6       6.8861      1.00000
      7       8.6328      1.00000
      8       8.6567      1.00000
      9       8.9946      1.00000
     10      10.2003     -0.00011
     11      10.4884     -0.00000
     12      10.5964     -0.00000
     13      10.8266     -0.00000
     14      11.1459     -0.00000
     15      15.3950      0.00000
     16      20.7441      0.00000
     17      20.7944      0.00000

 k-point     5 :       0.2813    0.0313    0.0313
  band No.  band energies     occupation 
      1     -41.9870      1.00000
      2     -41.9445      1.00000
      3     -41.9445      1.00000
      4       2.6146      1.00000
      5       6.6523      1.00000
      6       7.1581      1.00000
      7       8.6304      1.00000
      8       8.6469      1.00000
      9       9.1172      1.00000
     10       9.9141      0.40466
     11      10.1857     -0.00024
     12      10.2705     -0.00000
     13      10.9072     -0.00000
     14      11.0004     -0.00000
     15      14.1148      0.00000
     16      21.7253      0.00000
     17      21.7777      0.00000

 k-point     6 :       0.3438    0.0313    0.0313
  band No.  band energies     occupation 
      1     -41.9992      1.00000
      2     -41.9437      1.00000
      3     -41.9437      1.00000
      4       3.3068      1.00000
      5       6.5121      1.00000
      6       7.4779      1.00000
      7       8.6458      1.00000
      8       8.6462      1.00000
      9       9.2279      1.00000
     10       9.5847      1.00003
     11       9.9448      0.17660
     12       9.9795      0.01873
     13      10.8380     -0.00000
     14      10.9809     -0.00000
     15      13.0631      0.00000
     16      22.8197      0.00000
     17      22.8875      0.00000

 k-point     7 :       0.4063    0.0313    0.0313
  band No.  band energies     occupation 
      1     -42.0084      1.00000
      2     -41.9431      1.00000
      3     -41.9431      1.00000
      4       4.0714      1.00000
      5       6.1605      1.00000
      6       7.8264      1.00000
      7       8.6402      1.00000
      8       8.6786      1.00000
      9       9.2466      1.00000
     10       9.2774      1.00000
     11       9.7555      1.02883
     12       9.8226      0.99047
     13      10.6864     -0.00000
     14      11.0304     -0.00000
     15      12.3339      0.00000
     16      23.9779      0.00000
     17      24.0917      0.00000

 k-point     8 :       0.4688    0.0313    0.0313
  band No.  band energies     occupation 
      1     -42.0135      1.00000
      2     -41.9427      1.00000
      3     -41.9427      1.00000
      4       4.8516      1.00000
      5       5.5926      1.00000
      6       8.1521      1.00000
      7       8.5717      1.00000
      8       8.7098      1.00000
      9       8.9998      1.00000
     10       9.2606      1.00000
     11       9.6299      1.00039
     12       9.8124      1.01209
     13      10.5851     -0.00000
     14      11.0511     -0.00000
     15      11.9733      0.00000
     16      25.1201      0.00000
     17      25.3621      0.00000

 k-point     9 :       0.0938    0.0938    0.0313
  band No.  band energies     occupation 
      1     -41.9522      1.00000
      2     -41.9516      1.00000
      3     -41.9465      1.00000
      4       1.4196      1.00000
      5       6.5664      1.00000
      6       6.5815      1.00000
      7       8.6114      1.00000
      8       8.6690      1.00000
      9       8.8914      1.00000
     10      10.5689     -0.00000
     11      10.6701     -0.00000
     12      10.8435     -0.00000
     13      11.0727     -0.00000
     14      11.3516     -0.00000
     15      18.1853      0.00000
     16      18.6296      0.00000
     17      19.6586      0.00000

 k-point    10 :       0.1563    0.0938    0.0313
  band No.  band energies     occupation 
      1     -41.9612      1.00000
      2     -41.9512      1.00000
      3     -41.9459      1.00000
      4       1.7270      1.00000
      5       6.6506      1.00000
      6       6.7160      1.00000
      7       8.5529      1.00000
      8       8.6414      1.00000
      9       8.9974      1.00000
     10      10.4497     -0.00000
     11      10.5602     -0.00000
     12      10.7142     -0.00000
     13      10.8207     -0.00000
     14      11.3321     -0.00000
     15      16.9987      0.00000
     16      19.0189      0.00000
     17      20.2209      0.00000

 k-point    11 :       0.2188    0.0938    0.0313
  band No.  band energies     occupation 
      1     -41.9734      1.00000
      2     -41.9503      1.00000
      3     -41.9450      1.00000
      4       2.1766      1.00000
      5       6.7213      1.00000
      6       6.9185      1.00000
      7       8.5108      1.00000
      8       8.6098      1.00000
      9       9.1011      1.00000
     10      10.2473     -0.00001
     11      10.2798     -0.00000
     12      10.5187     -0.00000
     13      10.7936     -0.00000
     14      11.2542     -0.00000
     15      15.5995      0.00000
     16      19.7453      0.00000
     17      21.0006      0.00000

 k-point    12 :       0.2813    0.0938    0.0313
  band No.  band energies     occupation 
      1     -41.9865      1.00000
      2     -41.9494      1.00000
      3     -41.9441      1.00000
      4       2.7533      1.00000
      5       6.7220      1.00000
      6       7.1753      1.00000
      7       8.4915      1.00000
      8       8.5804      1.00000
      9       9.1679      1.00000
     10       9.9915     -0.00915
     11      10.0636     -0.02270
     12      10.2288     -0.00002
     13      10.8812     -0.00000
     14      11.1309     -0.00000
     15      14.2948      0.00000
     16      20.6123      0.00000
     17      21.9487      0.00000

 k-point    13 :       0.3438    0.0938    0.0313
  band No.  band energies     occupation 
      1     -41.9986      1.00000
      2     -41.9485      1.00000
      3     -41.9433      1.00000
      4       3.4340      1.00000
      5       6.5761      1.00000
      6       7.4727      1.00000
      7       8.4975      1.00000
      8       8.5546      1.00000
      9       9.1460      1.00000
     10       9.7104      1.01014
     11       9.9597      0.09407
     12      10.0152     -0.03369
     13      10.9463     -0.00000
     14      10.9965     -0.00000
     15      13.2004      0.00000
     16      21.5700      0.00000
     17      23.0228      0.00000

 k-point    14 :       0.4063    0.0938    0.0313
  band No.  band energies     occupation 
      1     -42.0078      1.00000
      2     -41.9478      1.00000
      3     -41.9426      1.00000
      4       4.1831      1.00000
      5       6.2234      1.00000
      6       7.7900      1.00000
      7       8.4857      1.00000
      8       8.5537      1.00000
      9       9.0458      1.00000
     10       9.4478      1.00000
     11       9.8137      1.00974
     12      10.0486     -0.02948
     13      10.8171     -0.00000
     14      11.0372     -0.00000
     15      12.4089      0.00000
     16      22.5846      0.00000
     17      24.1837      0.00000

 k-point    15 :       0.4688    0.0938    0.0313
  band No.  band energies     occupation 
      1     -42.0128      1.00000
      2     -41.9475      1.00000
      3     -41.9423      1.00000
      4       4.9444      1.00000
      5       5.6661      1.00000
      6       8.0844      1.00000
      7       8.3734      1.00000
      8       8.5951      1.00000
      9       8.9500      1.00000
     10       9.2820      1.00000
     11       9.7292      1.01699
     12      10.1307     -0.00293
     13      10.7038     -0.00000
     14      11.0781     -0.00000
     15      11.9905      0.00000
     16      23.6223      0.00000
     17      24.7558      0.00000

 k-point    16 :       0.1563    0.1563    0.0313
  band No.  band energies     occupation 
      1     -41.9612      1.00000
      2     -41.9598      1.00000
      3     -41.9452      1.00000
      4       2.0271      1.00000
      5       6.7795      1.00000
      6       6.7945      1.00000
      7       8.4512      1.00000
      8       8.5950      1.00000
      9       9.1092      1.00000
     10      10.2943     -0.00000
     11      10.4415     -0.00000
     12      10.5957     -0.00000
     13      10.6891     -0.00000
     14      11.3780     -0.00000
     15      16.9972      0.00000
     16      18.1333      0.00000
     17      20.7278      0.00000

 k-point    17 :       0.2188    0.1563    0.0313
  band No.  band energies     occupation 
      1     -41.9726      1.00000
      2     -41.9594      1.00000
      3     -41.9443      1.00000
      4       2.4649      1.00000
      5       6.8387      1.00000
      6       6.9869      1.00000
      7       8.3693      1.00000
      8       8.5418      1.00000
      9       9.1603      1.00000
     10      10.0935     -0.01065
     11      10.2958     -0.00000
     12      10.3700     -0.00000
     13      10.7414     -0.00000
     14      11.3618     -0.00000
     15      15.8729      0.00000
     16      18.4804      0.00000
     17      21.4438      0.00000

 k-point    18 :       0.2813    0.1563    0.0313
  band No.  band energies     occupation 
      1     -41.9856      1.00000
      2     -41.9584      1.00000
      3     -41.9434      1.00000
      4       3.0238      1.00000
      5       6.8205      1.00000
      6       7.2273      1.00000
      7       8.3170      1.00000
      8       8.4922      1.00000
      9       9.0914      1.00000
     10       9.9952     -0.01533
     11      10.1147     -0.00534
     12      10.1950     -0.00014
     13      10.8325     -0.00000
     14      11.2861     -0.00000
     15      14.5699      0.00000
     16      19.2185      0.00000
     17      22.3298      0.00000

 k-point    19 :       0.3438    0.1563    0.0313
  band No.  band energies     occupation 
      1     -41.9976      1.00000
      2     -41.9574      1.00000
      3     -41.9425      1.00000
      4       3.6790      1.00000
      5       6.6583      1.00000
      6       7.4969      1.00000
      7       8.2998      1.00000
      8       8.4480      1.00000
      9       8.9321      1.00000
     10       9.8317      0.96343
     11      10.0293     -0.03522
     12      10.1816     -0.00029
     13      10.9270     -0.00000
     14      11.1670     -0.00000
     15      13.4215      0.00000
     16      20.0766      0.00000
     17      23.3471      0.00000

 k-point    20 :       0.4063    0.1563    0.0313
  band No.  band energies     occupation 
      1     -42.0067      1.00000
      2     -41.9567      1.00000
      3     -41.9418      1.00000
      4       4.3929      1.00000
      5       6.3094      1.00000
      6       7.7744      1.00000
      7       8.3083      1.00000
      8       8.3998      1.00000
      9       8.7582      1.00000
     10       9.6873      1.00470
     11       9.9255      0.31287
     12      10.3310     -0.00000
     13      10.9834     -0.00000
     14      11.0624     -0.00000
     15      12.5378      0.00000
     16      21.0103      0.00000
     17      24.2205      0.00000

 k-point    21 :       0.4688    0.1563    0.0313
  band No.  band energies     occupation 
      1     -42.0117      1.00000
      2     -41.9563      1.00000
      3     -41.9415      1.00000
      4       5.1102      1.00000
      5       5.7836      1.00000
      6       8.0264      1.00000
      7       8.2363      1.00000
      8       8.4065      1.00000
      9       8.6226      1.00000
     10       9.6026      1.00009
     11       9.8854      0.64464
     12      10.4636     -0.00000
     13      10.8880     -0.00000
     14      11.1252     -0.00000
     15      12.0197      0.00000
     16      21.9977      0.00000
     17      23.1068      0.00000

 k-point    22 :       0.2188    0.2188    0.0313
  band No.  band energies     occupation 
      1     -41.9724      1.00000
      2     -41.9704      1.00000
      3     -41.9434      1.00000
      4       2.8829      1.00000
      5       6.9024      1.00000
      6       7.1397      1.00000
      7       8.2467      1.00000
      8       8.4721      1.00000
      9       9.0755      1.00000
     10      10.0314     -0.03492
     11      10.1670     -0.00060
     12      10.3757     -0.00000
     13      10.7191     -0.00000
     14      11.4145     -0.00000
     15      15.7121      0.00000
     16      17.7576      0.00000
     17      22.0816      0.00000

 k-point    23 :       0.2813    0.2188    0.0313
  band No.  band energies     occupation 
      1     -41.9843      1.00000
      2     -41.9701      1.00000
      3     -41.9424      1.00000
      4       3.4115      1.00000
      5       6.8517      1.00000
      6       7.3685      1.00000
      7       8.1571      1.00000
      8       8.4188      1.00000
      9       8.8799      1.00000
     10       9.9375      0.22477
     11      10.2403     -0.00001
     12      10.3089     -0.00000
     13      10.7762     -0.00000
     14      11.4019     -0.00000
     15      14.7426      0.00000
     16      18.0415      0.00000
     17      22.8858      0.00000

 k-point    24 :       0.3438    0.2188    0.0313
  band No.  band energies     occupation 
      1     -41.9962      1.00000
      2     -41.9691      1.00000
      3     -41.9415      1.00000
      4       4.0217      1.00000
      5       6.6710      1.00000
      6       7.6216      1.00000
      7       8.1092      1.00000
      8       8.3845      1.00000
      9       8.6629      1.00000
     10       9.8794      0.69199
     11      10.1969     -0.00013
     12      10.4216     -0.00000
     13      10.8748     -0.00000
     14      11.3308     -0.00000
     15      13.6217      0.00000
     16      18.7303      0.00000
     17      23.8136      0.00000

 k-point    25 :       0.4063    0.2188    0.0313
  band No.  band energies     occupation 
      1     -42.0053      1.00000
      2     -41.9682      1.00000
      3     -41.9408      1.00000
      4       4.6725      1.00000
      5       6.3477      1.00000
      6       7.8669      1.00000
      7       8.1067      1.00000
      8       8.3483      1.00000
      9       8.4713      1.00000
     10       9.8828      0.66543
     11      10.1015     -0.00833
     12      10.6141     -0.00000
     13      10.9960     -0.00000
     14      11.2214     -0.00000
     15      12.6705      0.00000
     16      19.5680      0.00000
     17      22.6785      0.00000

 k-point    26 :       0.4688    0.2188    0.0313
  band No.  band energies     occupation 
      1     -42.0102      1.00000
      2     -41.9678      1.00000
      3     -41.9404      1.00000
      4       5.3092      1.00000
      5       5.8906      1.00000
      6       8.0654      1.00000
      7       8.1352      1.00000
      8       8.2916      1.00000
      9       8.3308      1.00000
     10       9.9061      0.47198
     11      10.0518     -0.02808
     12      10.7580     -0.00000
     13      11.0787     -0.00000
     14      11.1856     -0.00000
     15      12.0464      0.00000
     16      20.4981      0.00000
     17      21.5635      0.00000

 k-point    27 :       0.2813    0.2813    0.0313
  band No.  band energies     occupation 
      1     -41.9839      1.00000
      2     -41.9820      1.00000
      3     -41.9414      1.00000
      4       3.8920      1.00000
      5       6.7628      1.00000
      6       7.6033      1.00000
      7       8.0313      1.00000
      8       8.3854      1.00000
      9       8.6298      1.00000
     10       9.9079      0.45636
     11      10.3785     -0.00000
     12      10.4493     -0.00000
     13      10.7571     -0.00000
     14      11.4554     -0.00000
     15      14.4415      0.00000
     16      17.5275      0.00000
     17      23.5936      0.00000

 k-point    28 :       0.3438    0.2813    0.0313
  band No.  band energies     occupation 
      1     -41.9947      1.00000
      2     -41.9816      1.00000
      3     -41.9405      1.00000
      4       4.4301      1.00000
      5       6.5721      1.00000
      6       7.8679      1.00000
      7       7.9528      1.00000
      8       8.3835      1.00000
      9       8.4112      1.00000
     10       9.9486      0.15372
     11      10.3557     -0.00000
     12      10.6744     -0.00000
     13      10.8178     -0.00000
     14      11.4434     -0.00000
     15      13.6242      0.00000
     16      17.7657      0.00000
     17      22.4670      0.00000

 k-point    29 :       0.4063    0.2813    0.0313
  band No.  band energies     occupation 
      1     -42.0037      1.00000
      2     -41.9807      1.00000
      3     -41.9397      1.00000
      4       4.9795      1.00000
      5       6.2955      1.00000
      6       7.9185      1.00000
      7       8.1046      1.00000
      8       8.2162      1.00000
      9       8.4389      1.00000
     10      10.0371     -0.03364
     11      10.2960     -0.00000
     12      10.8460     -0.00000
     13      10.9819     -0.00000
     14      11.3754     -0.00000
     15      12.7209      0.00000
     16      18.3892      0.00000
     17      21.2621      0.00000

 k-point    30 :       0.4688    0.2813    0.0313
  band No.  band energies     occupation 
      1     -42.0085      1.00000
      2     -41.9802      1.00000
      3     -41.9393      1.00000
      4       5.4909      1.00000
      5       5.9378      1.00000
      6       7.9405      1.00000
      7       8.0504      1.00000
      8       8.3057      1.00000
      9       8.4562      1.00000
     10      10.1392     -0.00208
     11      10.2294     -0.00002
     12      10.9531     -0.00000
     13      11.2166     -0.00000
     14      11.2951     -0.00000
     15      12.0403      0.00000
     16      19.2012      0.00000
     17      20.1825      0.00000

 k-point    31 :       0.3438    0.3438    0.0313
  band No.  band energies     occupation 
      1     -41.9940      1.00000
      2     -41.9926      1.00000
      3     -41.9395      1.00000
      4       4.8604      1.00000
      5       6.3962      1.00000
      6       7.8361      1.00000
      7       8.1613      1.00000
      8       8.1838      1.00000
      9       8.5031      1.00000
     10      10.0564     -0.02601
     11      10.4421     -0.00000
     12      10.7900     -0.00000
     13      10.9226     -0.00000
     14      11.4917     -0.00000
     15      13.2453      0.00000
     16      17.4051      0.00000
     17      21.1645      0.00000

 k-point    32 :       0.4063    0.3438    0.0313
  band No.  band energies     occupation 
      1     -42.0022      1.00000
      2     -41.9922      1.00000
      3     -41.9387      1.00000
      4       5.2673      1.00000
      5       6.1762      1.00000
      6       7.7780      1.00000
      7       7.9766      1.00000
      8       8.4798      1.00000
      9       8.6701      1.00000
     10      10.1757     -0.00039
     11      10.4491     -0.00000
     12      10.8387     -0.00000
     13      11.1507     -0.00000
     14      11.4746     -0.00000
     15      12.5788      0.00000
     16      17.6164      0.00000
     17      20.0062      0.00000

 k-point    33 :       0.4688    0.3438    0.0313
  band No.  band energies     occupation 
      1     -42.0070      1.00000
      2     -41.9917      1.00000
      3     -41.9383      1.00000
      4       5.6211      1.00000
      5       5.9212      1.00000
      6       7.7784      1.00000
      7       7.8512      1.00000
      8       8.6670      1.00000
      9       8.8117      1.00000
     10      10.2671     -0.00000
     11      10.4244     -0.00000
     12      10.9532     -0.00000
     13      11.3590     -0.00000
     14      11.4198     -0.00000
     15      11.9585      0.00000
     16      18.1884      0.00000
     17      19.0131      0.00000

 k-point    34 :       0.4063    0.4063    0.0313
  band No.  band energies     occupation 
      1     -42.0014      1.00000
      2     -42.0008      1.00000
      3     -41.9379      1.00000
      4       5.5076      1.00000
      5       6.0283      1.00000
      6       7.6912      1.00000
      7       7.8115      1.00000
      8       8.8620      1.00000
      9       8.9931      1.00000
     10      10.2907     -0.00000
     11      10.5366     -0.00000
     12      10.7763     -0.00000
     13      11.3459     -0.00000
     14      11.5044     -0.00000
     15      12.2074      0.00000
     16      17.3489      0.00000
     17      18.9432      0.00000

 k-point    35 :       0.4688    0.4063    0.0313
  band No.  band energies     occupation 
      1     -42.0058      1.00000
      2     -42.0005      1.00000
      3     -41.9375      1.00000
      4       5.7025      1.00000
      5       5.8709      1.00000
      6       7.6658      1.00000
      7       7.7072      1.00000
      8       9.1333      1.00000
      9       9.2581      1.00000
     10      10.3449     -0.00000
     11      10.5674     -0.00000
     12      10.7910     -0.00000
     13      11.4537     -0.00000
     14      11.5152     -0.00000
     15      11.7934     -0.00000
     16      17.5462      0.00000
     17      18.1106      0.00000

 k-point    36 :       0.4688    0.4688    0.0313
  band No.  band energies     occupation 
      1     -42.0052      1.00000
      2     -42.0052      1.00000
      3     -41.9371      1.00000
      4       5.7595      1.00000
      5       5.8138      1.00000
      6       7.6137      1.00000
      7       7.6272      1.00000
      8       9.5537      1.00000
      9       9.6113      1.00015
     10      10.3809     -0.00000
     11      10.5669     -0.00000
     12      10.6382     -0.00000
     13      11.3810     -0.00000
     14      11.6058     -0.00000
     15      11.6708     -0.00000
     16      17.3264      0.00000
     17      17.5343      0.00000

 k-point    37 :       0.0938    0.0938    0.0938
  band No.  band energies     occupation 
      1     -41.9521      1.00000
      2     -41.9513      1.00000
      3     -41.9513      1.00000
      4       1.5740      1.00000
      5       6.6334      1.00000
      6       6.6334      1.00000
      7       8.5934      1.00000
      8       8.5934      1.00000
      9       8.9800      1.00000
     10      10.5770     -0.00000
     11      10.6066     -0.00000
     12      10.6066     -0.00000
     13      11.1998     -0.00000
     14      11.1998     -0.00000
     15      18.4821      0.00000
     16      18.4821      0.00000
     17      19.0986      0.00000

 k-point    38 :       0.1563    0.0938    0.0938
  band No.  band energies     occupation 
      1     -41.9608      1.00000
      2     -41.9511      1.00000
      3     -41.9506      1.00000
      4       1.8782      1.00000
      5       6.7179      1.00000
      6       6.7644      1.00000
      7       8.5144      1.00000
      8       8.5608      1.00000
      9       9.0771      1.00000
     10      10.2947     -0.00000
     11      10.4822     -0.00000
     12      10.6753     -0.00000
     13      10.9400     -0.00000
     14      11.2457     -0.00000
     15      17.2255      0.00000
     16      19.0293      0.00000
     17      19.4704      0.00000

 k-point    39 :       0.2188    0.0938    0.0938
  band No.  band energies     occupation 
      1     -41.9729      1.00000
      2     -41.9501      1.00000
      3     -41.9498      1.00000
      4       2.3227      1.00000
      5       6.7943      1.00000
      6       6.9535      1.00000
      7       8.4546      1.00000
      8       8.5187      1.00000
      9       9.1322      1.00000
     10      10.0749     -0.01764
     11      10.3023     -0.00000
     12      10.6323     -0.00000
     13      10.7630     -0.00000
     14      11.2178     -0.00000
     15      15.8114      0.00000
     16      19.7623      0.00000
     17      20.1265      0.00000

 k-point    40 :       0.2813    0.0938    0.0938
  band No.  band energies     occupation 
      1     -41.9860      1.00000
      2     -41.9491      1.00000
      3     -41.9489      1.00000
      4       2.8918      1.00000
      5       6.7970      1.00000
      6       7.1912      1.00000
      7       8.4259      1.00000
      8       8.4713      1.00000
      9       9.0943      1.00000
     10      10.0039     -0.02626
     11      10.0757     -0.01731
     12      10.3317     -0.00000
     13      10.8541     -0.00000
     14      11.1364     -0.00000
     15      14.4876      0.00000
     16      20.6221      0.00000
     17      20.9373      0.00000

 k-point    41 :       0.3438    0.0938    0.0938
  band No.  band energies     occupation 
      1     -41.9980      1.00000
      2     -41.9481      1.00000
      3     -41.9481      1.00000
      4       3.5618      1.00000
      5       6.6475      1.00000
      6       7.4628      1.00000
      7       8.4172      1.00000
      8       8.4368      1.00000
      9       8.9877      1.00000
     10       9.8228      0.98991
     11      10.0779     -0.01636
     12      10.0784     -0.01619
     13      10.9150     -0.00000
     14      11.0496     -0.00000
     15      13.3613      0.00000
     16      21.5608      0.00000
     17      21.8620      0.00000

 k-point    42 :       0.4063    0.0938    0.0938
  band No.  band energies     occupation 
      1     -42.0073      1.00000
      2     -41.9475      1.00000
      3     -41.9474      1.00000
      4       4.2964      1.00000
      5       6.2929      1.00000
      6       7.7461      1.00000
      7       8.3423      1.00000
      8       8.4888      1.00000
      9       8.8754      1.00000
     10       9.5897      1.00004
     11       9.8939      0.57443
     12      10.2100     -0.00006
     13      10.8593     -0.00000
     14      11.0758     -0.00000
     15      12.5153      0.00000
     16      22.5405      0.00000
     17      22.8769      0.00000

 k-point    43 :       0.4688    0.0938    0.0938
  band No.  band energies     occupation 
      1     -42.0122      1.00000
      2     -41.9471      1.00000
      3     -41.9470      1.00000
      4       5.0402      1.00000
      5       5.7444      1.00000
      6       8.0066      1.00000
      7       8.2178      1.00000
      8       8.5604      1.00000
      9       8.7815      1.00000
     10       9.4430      1.00000
     11       9.7953      1.03127
     12      10.3118     -0.00000
     13      10.7956     -0.00000
     14      11.1442     -0.00000
     15      12.0291      0.00000
     16      23.5183      0.00000
     17      23.9671      0.00000

 k-point    44 :       0.1563    0.1563    0.0938
  band No.  band energies     occupation 
      1     -41.9607      1.00000
      2     -41.9594      1.00000
      3     -41.9501      1.00000
      4       2.1757      1.00000
      5       6.8430      1.00000
      6       6.8470      1.00000
      7       8.4233      1.00000
      8       8.4967      1.00000
      9       9.1241      1.00000
     10      10.0784     -0.01616
     11      10.4882     -0.00000
     12      10.6488     -0.00000
     13      10.8176     -0.00000
     14      11.2287     -0.00000
     15      17.2791      0.00000
     16      18.2125      0.00000
     17      19.7592      0.00000

 k-point    45 :       0.2188    0.1563    0.0938
  band No.  band energies     occupation 
      1     -41.9721      1.00000
      2     -41.9590      1.00000
      3     -41.9492      1.00000
      4       2.6093      1.00000
      5       6.9149      1.00000
      6       7.0235      1.00000
      7       8.3348      1.00000
      8       8.4368      1.00000
      9       9.0514      1.00000
     10      10.0189     -0.03479
     11      10.3757     -0.00000
     12      10.5621     -0.00000
     13      10.7156     -0.00000
     14      11.2322     -0.00000
     15      16.1123      0.00000
     16      18.5890      0.00000
     17      20.3689      0.00000

 k-point    46 :       0.2813    0.1563    0.0938
  band No.  band energies     occupation 
      1     -41.9851      1.00000
      2     -41.9580      1.00000
      3     -41.9483      1.00000
      4       3.1619      1.00000
      5       6.9073      1.00000
      6       7.2386      1.00000
      7       8.2761      1.00000
      8       8.3780      1.00000
      9       8.8941      1.00000
     10      10.1013     -0.00839
     11      10.2023     -0.00010
     12      10.3217     -0.00000
     13      10.8114     -0.00000
     14      11.1903     -0.00000
     15      14.7887      0.00000
     16      19.3259      0.00000
     17      21.1303      0.00000

 k-point    47 :       0.3438    0.1563    0.0938
  band No.  band energies     occupation 
      1     -41.9970      1.00000
      2     -41.9570      1.00000
      3     -41.9474      1.00000
      4       3.8078      1.00000
      5       6.7445      1.00000
      6       7.4755      1.00000
      7       8.2436      1.00000
      8       8.3367      1.00000
      9       8.7503      1.00000
     10       9.9687      0.05521
     11      10.1242     -0.00377
     12      10.3028     -0.00000
     13      10.8985     -0.00000
     14      11.1259     -0.00000
     15      13.6206      0.00000
     16      20.1736      0.00000
     17      22.0022      0.00000

 k-point    48 :       0.4063    0.1563    0.0938
  band No.  band energies     occupation 
      1     -42.0062      1.00000
      2     -41.9563      1.00000
      3     -41.9467      1.00000
      4       4.5094      1.00000
      5       6.3919      1.00000
      6       7.7128      1.00000
      7       8.1892      1.00000
      8       8.3531      1.00000
      9       8.6405      1.00000
     10       9.7985      1.02905
     11       9.9962     -0.01694
     12      10.4519     -0.00000
     13      10.9397     -0.00000
     14      11.1327     -0.00000
     15      12.6981      0.00000
     16      21.0956      0.00000
     17      22.9547      0.00000

 k-point    49 :       0.4688    0.1563    0.0938
  band No.  band energies     occupation 
      1     -42.0111      1.00000
      2     -41.9559      1.00000
      3     -41.9463      1.00000
      4       5.2120      1.00000
      5       5.8712      1.00000
      6       7.9233      1.00000
      7       8.0848      1.00000
      8       8.4242      1.00000
      9       8.5407      1.00000
     10       9.7016      1.00770
     11       9.9288      0.28779
     12      10.5208     -0.00000
     13      10.9405     -0.00000
     14      11.2700     -0.00000
     15      12.1046      0.00000
     16      22.0708      0.00000
     17      23.1744      0.00000

 k-point    50 :       0.2188    0.2188    0.0938
  band No.  band energies     occupation 
      1     -41.9719      1.00000
      2     -41.9701      1.00000
      3     -41.9483      1.00000
      4       3.0244      1.00000
      5       6.9872      1.00000
      6       7.1702      1.00000
      7       8.2129      1.00000
      8       8.3641      1.00000
      9       8.8525      1.00000
     10      10.1193     -0.00452
     11      10.3723     -0.00000
     12      10.4284     -0.00000
     13      10.6994     -0.00000
     14      11.2667     -0.00000
     15      15.9973      0.00000
     16      17.8149      0.00000
     17      20.9077      0.00000

 k-point    51 :       0.2813    0.2188    0.0938
  band No.  band energies     occupation 
      1     -41.9839      1.00000
      2     -41.9697      1.00000
      3     -41.9473      1.00000
      4       3.5485      1.00000
      5       6.9472      1.00000
      6       7.3762      1.00000
      7       8.1213      1.00000
      8       8.3048      1.00000
      9       8.6479      1.00000
     10      10.1414     -0.00190
     11      10.3528     -0.00000
     12      10.3750     -0.00000
     13      10.7630     -0.00000
     14      11.2640     -0.00000
     15      15.0084      0.00000
     16      18.1103      0.00000
     17      21.5927      0.00000

 k-point    52 :       0.3438    0.2188    0.0938
  band No.  band energies     occupation 
      1     -41.9957      1.00000
      2     -41.9687      1.00000
      3     -41.9464      1.00000
      4       4.1520      1.00000
      5       6.7688      1.00000
      6       7.5885      1.00000
      7       8.0670      1.00000
      8       8.2679      1.00000
      9       8.5004      1.00000
     10      10.0363     -0.03384
     11      10.2421     -0.00001
     12      10.5646     -0.00000
     13      10.8718     -0.00000
     14      11.2235     -0.00000
     15      13.8714      0.00000
     16      18.8059      0.00000
     17      22.3920      0.00000

 k-point    53 :       0.4063    0.2188    0.0938
  band No.  band energies     occupation 
      1     -42.0047      1.00000
      2     -41.9678      1.00000
      3     -41.9456      1.00000
      4       4.7934      1.00000
      5       6.4432      1.00000
      6       7.7755      1.00000
      7       8.0407      1.00000
      8       8.2535      1.00000
      9       8.4082      1.00000
     10       9.9857      0.00295
     11      10.1413     -0.00191
     12      10.6744     -0.00000
     13      11.0433     -0.00000
     14      11.2070     -0.00000
     15      12.8989      0.00000
     16      19.6432      0.00000
     17      22.7520      0.00000

 k-point    54 :       0.4688    0.2188    0.0938
  band No.  band energies     occupation 
      1     -42.0096      1.00000
      2     -41.9674      1.00000
      3     -41.9453      1.00000
      4       5.4190      1.00000
      5       5.9893      1.00000
      6       7.9032      1.00000
      7       8.0191      1.00000
      8       8.2602      1.00000
      9       8.3515      1.00000
     10       9.9776      0.02450
     11      10.0820     -0.01475
     12      10.6783     -0.00000
     13      11.0971     -0.00000
     14      11.4363     -0.00000
     15      12.2060      0.00000
     16      20.5712      0.00000
     17      21.6389      0.00000

 k-point    55 :       0.2813    0.2813    0.0938
  band No.  band energies     occupation 
      1     -41.9834      1.00000
      2     -41.9816      1.00000
      3     -41.9463      1.00000
      4       4.0270      1.00000
      5       6.8608      1.00000
      6       7.6004      1.00000
      7       7.9992      1.00000
      8       8.2619      1.00000
      9       8.4279      1.00000
     10      10.0855     -0.01340
     11      10.4155     -0.00000
     12      10.6127     -0.00000
     13      10.7467     -0.00000
     14      11.3065     -0.00000
     15      14.7522      0.00000
     16      17.5594      0.00000
     17      22.1920      0.00000

 k-point    56 :       0.3438    0.2813    0.0938
  band No.  band energies     occupation 
      1     -41.9943      1.00000
      2     -41.9812      1.00000
      3     -41.9453      1.00000
      4       4.5612      1.00000
      5       6.6710      1.00000
      6       7.8149      1.00000
      7       7.9339      1.00000
      8       8.2270      1.00000
      9       8.3039      1.00000
     10      10.0748     -0.01766
     11      10.3897     -0.00000
     12      10.7619     -0.00000
     13      10.9054     -0.00000
     14      11.3026     -0.00000
     15      13.9389      0.00000
     16      17.8051      0.00000
     17      22.5436      0.00000

 k-point    57 :       0.4063    0.2813    0.0938
  band No.  band energies     occupation 
      1     -42.0032      1.00000
      2     -41.9803      1.00000
      3     -41.9445      1.00000
      4       5.1043      1.00000
      5       6.3961      1.00000
      6       7.8514      1.00000
      7       7.9829      1.00000
      8       8.1872      1.00000
      9       8.3401      1.00000
     10      10.1169     -0.00493
     11      10.3263     -0.00000
     12      10.7795     -0.00000
     13      11.2013     -0.00000
     14      11.2924     -0.00000
     15      13.0308      0.00000
     16      18.4413      0.00000
     17      21.3357      0.00000

 k-point    58 :       0.4688    0.2813    0.0938
  band No.  band energies     occupation 
      1     -42.0080      1.00000
      2     -41.9798      1.00000
      3     -41.9441      1.00000
      4       5.6072      1.00000
      5       6.0437      1.00000
      6       7.8482      1.00000
      7       7.9573      1.00000
      8       8.2417      1.00000
      9       8.3987      1.00000
     10      10.1837     -0.00026
     11      10.2648     -0.00000
     12      10.7619     -0.00000
     13      11.2257     -0.00000
     14      11.6174     -0.00000
     15      12.3018      0.00000
     16      19.2613      0.00000
     17      20.2511      0.00000

 k-point    59 :       0.3438    0.3438    0.0938
  band No.  band energies     occupation 
      1     -41.9935      1.00000
      2     -41.9923      1.00000
      3     -41.9443      1.00000
      4       4.9906      1.00000
      5       6.4949      1.00000
      6       7.7967      1.00000
      7       8.0504      1.00000
      8       8.1459      1.00000
      9       8.3578      1.00000
     10      10.1421     -0.00184
     11      10.4759     -0.00000
     12      10.7690     -0.00000
     13      11.1467     -0.00000
     14      11.3375     -0.00000
     15      13.6171      0.00000
     16      17.4219      0.00000
     17      21.2380      0.00000

 k-point    60 :       0.4063    0.3438    0.0938
  band No.  band energies     occupation 
      1     -42.0018      1.00000
      2     -41.9918      1.00000
      3     -41.9435      1.00000
      4       5.3930      1.00000
      5       6.2778      1.00000
      6       7.7393      1.00000
      7       7.8979      1.00000
      8       8.4042      1.00000
      9       8.5145      1.00000
     10      10.2257     -0.00002
     11      10.4836     -0.00000
     12      10.7699     -0.00000
     13      11.3274     -0.00000
     14      11.4387     -0.00000
     15      12.9822      0.00000
     16      17.6401      0.00000
     17      20.0713      0.00000

 k-point    61 :       0.4688    0.3438    0.0938
  band No.  band energies     occupation 
      1     -42.0066      1.00000
      2     -41.9913      1.00000
      3     -41.9431      1.00000
      4       5.7390      1.00000
      5       6.0293      1.00000
      6       7.7298      1.00000
      7       7.7973      1.00000
      8       8.5417      1.00000
      9       8.6754      1.00000
     10      10.2914     -0.00000
     11      10.4672     -0.00000
     12      10.7589     -0.00000
     13      11.3061     -0.00000
     14      11.7872     -0.00000
     15      12.3443      0.00000
     16      18.2272      0.00000
     17      19.0670      0.00000

 k-point    62 :       0.4063    0.4063    0.0938
  band No.  band energies     occupation 
      1     -42.0010      1.00000
      2     -42.0004      1.00000
      3     -41.9427      1.00000
      4       5.6296      1.00000
      5       6.1322      1.00000
      6       7.6589      1.00000
      7       7.7594      1.00000
      8       8.7459      1.00000
      9       8.7822      1.00000
     10      10.3129     -0.00000
     11      10.5771     -0.00000
     12      10.7131     -0.00000
     13      11.3475     -0.00000
     14      11.6661     -0.00000
     15      12.6972      0.00000
     16      17.3583      0.00000
     17      18.9945      0.00000

 k-point    63 :       0.4688    0.4063    0.0938
  band No.  band energies     occupation 
      1     -42.0054      1.00000
      2     -42.0001      1.00000
      3     -41.9423      1.00000
      4       5.8177      1.00000
      5       5.9796      1.00000
      6       7.6322      1.00000
      7       7.6686      1.00000
      8       8.9516      1.00000
      9       9.0367      1.00000
     10      10.3588     -0.00000
     11      10.6096     -0.00000
     12      10.6601     -0.00000
     13      11.3373     -0.00000
     14      11.9305      0.00000
     15      12.2974      0.00000
     16      17.5628      0.00000
     17      18.1447      0.00000

 k-point    64 :       0.4688    0.4688    0.0938
  band No.  band energies     occupation 
      1     -42.0049      1.00000
      2     -42.0048      1.00000
      3     -41.9419      1.00000
      4       5.8698      1.00000
      5       5.9249      1.00000
      6       7.5844      1.00000
      7       7.5960      1.00000
      8       9.2895      1.00000
      9       9.3047      1.00000
     10      10.3903     -0.00000
     11      10.5169     -0.00000
     12      10.6783     -0.00000
     13      11.3356     -0.00000
     14      12.0548      0.00000
     15      12.1820      0.00000
     16      17.3331      0.00000
     17      17.5494      0.00000

 k-point    65 :       0.1563    0.1563    0.1563
  band No.  band energies     occupation 
      1     -41.9604      1.00000
      2     -41.9588      1.00000
      3     -41.9588      1.00000
      4       2.4678      1.00000
      5       6.9486      1.00000
      6       6.9486      1.00000
      7       8.3716      1.00000
      8       8.3717      1.00000
      9       9.0211      1.00000
     10      10.0168     -0.03421
     11      10.5699     -0.00000
     12      10.5699     -0.00000
     13      10.9792     -0.00000
     14      10.9792     -0.00000
     15      17.7929      0.00000
     16      17.7929      0.00000
     17      19.0738      0.00000

 k-point    66 :       0.2188    0.1563    0.1563
  band No.  band energies     occupation 
      1     -41.9713      1.00000
      2     -41.9586      1.00000
      3     -41.9579      1.00000
      4       2.8922      1.00000
      5       7.0466      1.00000
      6       7.0920      1.00000
      7       8.2647      1.00000
      8       8.3030      1.00000
      9       8.8055      1.00000
     10      10.1265     -0.00346
     11      10.4555     -0.00000
     12      10.6716     -0.00000
     13      10.6929     -0.00000
     14      11.0648     -0.00000
     15      16.4917      0.00000
     16      18.4743      0.00000
     17      19.3840      0.00000

 k-point    67 :       0.2813    0.1563    0.1563
  band No.  band energies     occupation 
      1     -41.9842      1.00000
      2     -41.9574      1.00000
      3     -41.9570      1.00000
      4       3.4307      1.00000
      5       7.0516      1.00000
      6       7.2658      1.00000
      7       8.1997      1.00000
      8       8.2246      1.00000
      9       8.6092      1.00000
     10      10.3078     -0.00000
     11      10.3182     -0.00000
     12      10.4279     -0.00000
     13      10.7745     -0.00000
     14      11.0883     -0.00000
     15      15.1422      0.00000
     16      19.2701      0.00000
     17      19.9747      0.00000

 k-point    68 :       0.3438    0.1563    0.1563
  band No.  band energies     occupation 
      1     -41.9960      1.00000
      2     -41.9563      1.00000
      3     -41.9562      1.00000
      4       4.0560      1.00000
      5       6.8786      1.00000
      6       7.4545      1.00000
      7       8.1409      1.00000
      8       8.1904      1.00000
      9       8.5090      1.00000
     10      10.1294     -0.00309
     11      10.2327     -0.00002
     12      10.5101     -0.00000
     13      10.8778     -0.00000
     14      11.0955     -0.00000
     15      13.9422      0.00000
     16      20.1435      0.00000
     17      20.7106      0.00000

 k-point    69 :       0.4063    0.1563    0.1563
  band No.  band energies     occupation 
      1     -42.0051      1.00000
      2     -41.9556      1.00000
      3     -41.9555      1.00000
      4       4.7289      1.00000
      5       6.5200      1.00000
      6       7.6386      1.00000
      7       8.0513      1.00000
      8       8.2351      1.00000
      9       8.4691      1.00000
     10       9.9745      0.03421
     11      10.1002     -0.00869
     12      10.5885     -0.00000
     13      10.9971     -0.00000
     14      11.2007     -0.00000
     15      12.9648      0.00000
     16      21.0710      0.00000
     17      21.5667      0.00000

 k-point    70 :       0.4688    0.1563    0.1563
  band No.  band energies     occupation 
      1     -42.0101      1.00000
      2     -41.9552      1.00000
      3     -41.9550      1.00000
      4       5.3963      1.00000
      5       6.0180      1.00000
      6       7.7949      1.00000
      7       7.9526      1.00000
      8       8.3149      1.00000
      9       8.4172      1.00000
     10       9.8903      0.60438
     11      10.0263     -0.03544
     12      10.5767     -0.00000
     13      11.0403     -0.00000
     14      11.5001     -0.00000
     15      12.2696      0.00000
     16      22.0282      0.00000
     17      22.5308      0.00000

 k-point    71 :       0.2188    0.2188    0.1563
  band No.  band energies     occupation 
      1     -41.9709      1.00000
      2     -41.9694      1.00000
      3     -41.9573      1.00000
      4       3.3009      1.00000
      5       7.1382      1.00000
      6       7.2273      1.00000
      7       8.1508      1.00000
      8       8.2113      1.00000
      9       8.5275      1.00000
     10      10.3312     -0.00000
     11      10.4971     -0.00000
     12      10.6041     -0.00000
     13      10.6595     -0.00000
     14      11.0312     -0.00000
     15      16.5084      0.00000
     16      17.8120      0.00000
     17      19.5845      0.00000

 k-point    72 :       0.2813    0.2188    0.1563
  band No.  band energies     occupation 
      1     -41.9830      1.00000
      2     -41.9690      1.00000
      3     -41.9562      1.00000
      4       3.8148      1.00000
      5       7.1248      1.00000
      6       7.3846      1.00000
      7       8.0575      1.00000
      8       8.1383      1.00000
      9       8.3322      1.00000
     10      10.3911     -0.00000
     11      10.4312     -0.00000
     12      10.5891     -0.00000
     13      10.7403     -0.00000
     14      11.0663     -0.00000
     15      15.4572      0.00000
     16      18.2000      0.00000
     17      20.1415      0.00000

 k-point    73 :       0.3438    0.2188    0.1563
  band No.  band energies     occupation 
      1     -41.9948      1.00000
      2     -41.9679      1.00000
      3     -41.9553      1.00000
      4       4.4028      1.00000
      5       6.9440      1.00000
      6       7.5235      1.00000
      7       7.9931      1.00000
      8       8.0944      1.00000
      9       8.2814      1.00000
     10      10.2364     -0.00001
     11      10.3282     -0.00000
     12      10.6969     -0.00000
     13      10.9576     -0.00000
     14      11.1015     -0.00000
     15      14.2776      0.00000
     16      18.9350      0.00000
     17      20.8493      0.00000

 k-point    74 :       0.4063    0.2188    0.1563
  band No.  band energies     occupation 
      1     -42.0038      1.00000
      2     -41.9671      1.00000
      3     -41.9545      1.00000
      4       5.0222      1.00000
      5       6.6079      1.00000
      6       7.6405      1.00000
      7       7.9335      1.00000
      8       8.1041      1.00000
      9       8.3032      1.00000
     10      10.1434     -0.00174
     11      10.2281     -0.00002
     12      10.6686     -0.00000
     13      11.1107     -0.00000
     14      11.3383     -0.00000
     15      13.2641      0.00000
     16      19.7837      0.00000
     17      21.6754      0.00000

 k-point    75 :       0.4688    0.2188    0.1563
  band No.  band energies     occupation 
      1     -42.0087      1.00000
      2     -41.9666      1.00000
      3     -41.9541      1.00000
      4       5.6209      1.00000
      5       6.1632      1.00000
      6       7.7218      1.00000
      7       7.8823      1.00000
      8       8.1448      1.00000
      9       8.3100      1.00000
     10      10.1165     -0.00501
     11      10.1551     -0.00104
     12      10.6197     -0.00000
     13      11.1348     -0.00000
     14      11.7712     -0.00000
     15      12.4894      0.00000
     16      20.7130      0.00000
     17      21.7842      0.00000

 k-point    76 :       0.2813    0.2813    0.1563
  band No.  band energies     occupation 
      1     -41.9824      1.00000
      2     -41.9810      1.00000
      3     -41.9552      1.00000
      4       4.2885      1.00000
      5       7.0440      1.00000
      6       7.5915      1.00000
      7       7.9421      1.00000
      8       8.0708      1.00000
      9       8.1432      1.00000
     10      10.3118     -0.00000
     11      10.4927     -0.00000
     12      10.7199     -0.00000
     13      10.8873     -0.00000
     14      11.0968     -0.00000
     15      15.2903      0.00000
     16      17.5950      0.00000
     17      20.6525      0.00000

 k-point    77 :       0.3438    0.2813    0.1563
  band No.  band energies     occupation 
      1     -41.9934      1.00000
      2     -41.9805      1.00000
      3     -41.9542      1.00000
      4       4.8140      1.00000
      5       6.8534      1.00000
      6       7.7186      1.00000
      7       7.8826      1.00000
      8       8.0172      1.00000
      9       8.1299      1.00000
     10      10.2513     -0.00000
     11      10.4672     -0.00000
     12      10.7338     -0.00000
     13      11.1350     -0.00000
     14      11.2060     -0.00000
     15      14.4552      0.00000
     16      17.8768      0.00000
     17      21.3077      0.00000

 k-point    78 :       0.4063    0.2813    0.1563
  band No.  band energies     occupation 
      1     -42.0023      1.00000
      2     -41.9796      1.00000
      3     -41.9534      1.00000
      4       5.3422      1.00000
      5       6.5796      1.00000
      6       7.7144      1.00000
      7       7.8532      1.00000
      8       8.0494      1.00000
      9       8.2238      1.00000
     10      10.2371     -0.00001
     11      10.4086     -0.00000
     12      10.7004     -0.00000
     13      11.1758     -0.00000
     14      11.5829     -0.00000
     15      13.5093      0.00000
     16      18.5480      0.00000
     17      21.4869      0.00000

 k-point    79 :       0.4688    0.2813    0.1563
  band No.  band energies     occupation 
      1     -42.0072      1.00000
      2     -41.9791      1.00000
      3     -41.9530      1.00000
      4       5.8252      1.00000
      5       6.2387      1.00000
      6       7.6942      1.00000
      7       7.8377      1.00000
      8       8.0934      1.00000
      9       8.3020      1.00000
     10      10.2506     -0.00001
     11      10.3642     -0.00000
     12      10.6445     -0.00000
     13      11.2039     -0.00000
     14      12.0464      0.00000
     15      12.7162      0.00000
     16      19.3873      0.00000
     17      20.3932      0.00000

 k-point    80 :       0.3438    0.3438    0.1563
  band No.  band energies     occupation 
      1     -41.9926      1.00000
      2     -41.9916      1.00000
      3     -41.9532      1.00000
      4       5.2414      1.00000
      5       6.6772      1.00000
      6       7.7249      1.00000
      7       7.8701      1.00000
      8       8.0738      1.00000
      9       8.1397      1.00000
     10      10.2709     -0.00000
     11      10.5542     -0.00000
     12      10.7181     -0.00000
     13      11.1777     -0.00000
     14      11.5119     -0.00000
     15      14.2136      0.00000
     16      17.4512      0.00000
     17      21.3900      0.00000

 k-point    81 :       0.4063    0.3438    0.1563
  band No.  band energies     occupation 
      1     -42.0010      1.00000
      2     -41.9911      1.00000
      3     -41.9524      1.00000
      4       5.6339      1.00000
      5       6.4667      1.00000
      6       7.6664      1.00000
      7       7.7700      1.00000
      8       8.2239      1.00000
      9       8.3221      1.00000
     10      10.3055     -0.00000
     11      10.5657     -0.00000
     12      10.6857     -0.00000
     13      11.2216     -0.00000
     14      11.8638     -0.00000
     15      13.5802      0.00000
     16      17.6917      0.00000
     17      20.2093      0.00000

 k-point    82 :       0.4688    0.3438    0.1563
  band No.  band energies     occupation 
      1     -42.0058      1.00000
      2     -41.9906      1.00000
      3     -41.9520      1.00000
      4       5.9623      1.00000
      5       6.2327      1.00000
      6       7.6383      1.00000
      7       7.7114      1.00000
      8       8.3190      1.00000
      9       8.4705      1.00000
     10      10.3348     -0.00000
     11      10.5594     -0.00000
     12      10.6332     -0.00000
     13      11.2542     -0.00000
     14      12.3010      0.00000
     15      12.8920      0.00000
     16      18.3138      0.00000
     17      19.1840      0.00000

 k-point    83 :       0.4063    0.4063    0.1563
  band No.  band energies     occupation 
      1     -42.0002      1.00000
      2     -41.9997      1.00000
      3     -41.9517      1.00000
      4       5.8629      1.00000
      5       6.3273      1.00000
      6       7.6000      1.00000
      7       7.6685      1.00000
      8       8.4754      1.00000
      9       8.5449      1.00000
     10      10.3588     -0.00000
     11      10.6290     -0.00000
     12      10.6619     -0.00000
     13      11.2644     -0.00000
     14      12.1689      0.00000
     15      13.3709      0.00000
     16      17.3815      0.00000
     17      19.1072      0.00000

 k-point    84 :       0.4688    0.4063    0.1563
  band No.  band energies     occupation 
      1     -42.0047      1.00000
      2     -41.9994      1.00000
      3     -41.9512      1.00000
      4       6.0351      1.00000
      5       6.1869      1.00000
      6       7.5705      1.00000
      7       7.6013      1.00000
      8       8.6500      1.00000
      9       8.7286      1.00000
     10      10.3888     -0.00000
     11      10.5677     -0.00000
     12      10.6959     -0.00000
     13      11.2969     -0.00000
     14      12.5272      0.00000
     15      12.9591      0.00000
     16      17.6043      0.00000
     17      18.2233      0.00000

 k-point    85 :       0.4688    0.4688    0.1563
  band No.  band energies     occupation 
      1     -42.0042      1.00000
      2     -42.0041      1.00000
      3     -41.9508      1.00000
      4       6.0740      1.00000
      5       6.1410      1.00000
      6       7.5311      1.00000
      7       7.5398      1.00000
      8       8.9036      1.00000
      9       8.9160      1.00000
     10      10.4148     -0.00000
     11      10.4900     -0.00000
     12      10.7566     -0.00000
     13      11.3285     -0.00000
     14      12.7289      0.00000
     15      12.8916      0.00000
     16      17.3539      0.00000
     17      17.5883      0.00000

 k-point    86 :       0.2188    0.2188    0.2188
  band No.  band energies     occupation 
      1     -41.9701      1.00000
      2     -41.9686      1.00000
      3     -41.9686      1.00000
      4       3.6984      1.00000
      5       7.3037      1.00000
      6       7.3037      1.00000
      7       8.0703      1.00000
      8       8.0703      1.00000
      9       8.2053      1.00000
     10      10.5984     -0.00000
     11      10.5987     -0.00000
     12      10.5987     -0.00000
     13      10.7781     -0.00000
     14      10.7781     -0.00000
     15      17.1774      0.00000
     16      17.1774      0.00000
     17      19.0108      0.00000

 k-point    87 :       0.2813    0.2188    0.2188
  band No.  band energies     occupation 
      1     -41.9819      1.00000
      2     -41.9682      1.00000
      3     -41.9677      1.00000
      4       4.1940      1.00000
      5       7.3392      1.00000
      6       7.3895      1.00000
      7       7.9715      1.00000
      8       7.9827      1.00000
      9       8.0275      1.00000
     10      10.5075     -0.00000
     11      10.5691     -0.00000
     12      10.6732     -0.00000
     13      10.8914     -0.00000
     14      10.9222     -0.00000
     15      15.9503      0.00000
     16      17.9558      0.00000
     17      19.2559      0.00000

 k-point    88 :       0.3438    0.2188    0.2188
  band No.  band energies     occupation 
      1     -41.9936      1.00000
      2     -41.9670      1.00000
      3     -41.9668      1.00000
      4       4.7532      1.00000
      5       7.1161      1.00000
      6       7.4733      1.00000
      7       7.8989      1.00000
      8       7.9257      1.00000
      9       8.0893      1.00000
     10      10.3686     -0.00000
     11      10.4569     -0.00000
     12      10.6824     -0.00000
     13      11.0305     -0.00000
     14      11.2399     -0.00000
     15      14.7310      0.00000
     16      18.8146      0.00000
     17      19.7817      0.00000

 k-point    89 :       0.4063    0.2188    0.2188
  band No.  band energies     occupation 
      1     -42.0026      1.00000
      2     -41.9662      1.00000
      3     -41.9660      1.00000
      4       5.3299      1.00000
      5       6.7674      1.00000
      6       7.5444      1.00000
      7       7.8285      1.00000
      8       7.9454      1.00000
      9       8.1889      1.00000
     10      10.2727     -0.00000
     11      10.3740     -0.00000
     12      10.6383     -0.00000
     13      11.1202     -0.00000
     14      11.6440     -0.00000
     15      13.6777      0.00000
     16      19.7380      0.00000
     17      20.4778      0.00000

 k-point    90 :       0.4688    0.2188    0.2188
  band No.  band energies     occupation 
      1     -42.0074      1.00000
      2     -41.9658      1.00000
      3     -41.9655      1.00000
      4       5.8741      1.00000
      5       6.3559      1.00000
      6       7.5904      1.00000
      7       7.7830      1.00000
      8       7.9915      1.00000
      9       8.2290      1.00000
     10      10.2355     -0.00001
     11      10.3187     -0.00000
     12      10.5925     -0.00000
     13      11.1678     -0.00000
     14      12.1401      0.00000
     15      12.8401      0.00000
     16      20.7141      0.00000
     17      21.3142      0.00000

 k-point    91 :       0.2813    0.2813    0.2188
  band No.  band energies     occupation 
      1     -41.9811      1.00000
      2     -41.9801      1.00000
      3     -41.9668      1.00000
      4       4.6585      1.00000
      5       7.2843      1.00000
      6       7.5719      1.00000
      7       7.8038      1.00000
      8       7.8727      1.00000
      9       7.9195      1.00000
     10      10.4809     -0.00000
     11      10.6292     -0.00000
     12      10.6608     -0.00000
     13      10.9170     -0.00000
     14      11.2228     -0.00000
     15      15.9777      0.00000
     16      17.4769      0.00000
     17      19.3970      0.00000

 k-point    92 :       0.3438    0.2813    0.2188
  band No.  band energies     occupation 
      1     -41.9923      1.00000
      2     -41.9795      1.00000
      3     -41.9658      1.00000
      4       5.1671      1.00000
      5       7.0793      1.00000
      6       7.5876      1.00000
      7       7.7728      1.00000
      8       7.8431      1.00000
      9       7.9725      1.00000
     10      10.3974     -0.00000
     11      10.5951     -0.00000
     12      10.6640     -0.00000
     13      11.0262     -0.00000
     14      11.5791     -0.00000
     15      15.0711      0.00000
     16      17.9225      0.00000
     17      19.9111      0.00000

 k-point    93 :       0.4063    0.2813    0.2188
  band No.  band energies     occupation 
      1     -42.0012      1.00000
      2     -41.9786      1.00000
      3     -41.9650      1.00000
      4       5.6670      1.00000
      5       6.8000      1.00000
      6       7.5557      1.00000
      7       7.7476      1.00000
      8       7.8594      1.00000
      9       8.1142      1.00000
     10      10.3439     -0.00000
     11      10.5478     -0.00000
     12      10.6266     -0.00000
     13      11.1352     -0.00000
     14      11.9942      0.00000
     15      14.0583      0.00000
     16      18.6904      0.00000
     17      20.6103      0.00000

 k-point    94 :       0.4688    0.2813    0.2188
  band No.  band energies     occupation 
      1     -42.0060      1.00000
      2     -41.9782      1.00000
      3     -41.9646      1.00000
      4       6.1102      1.00000
      5       6.4819      1.00000
      6       7.5391      1.00000
      7       7.7324      1.00000
      8       7.9045      1.00000
      9       8.1847      1.00000
     10      10.3232     -0.00000
     11      10.5193     -0.00000
     12      10.5814     -0.00000
     13      11.1982     -0.00000
     14      12.5120      0.00000
     15      13.2021      0.00000
     16      19.5780      0.00000
     17      20.6051      0.00000

 k-point    95 :       0.3438    0.3438    0.2188
  band No.  band energies     occupation 
      1     -41.9915      1.00000
      2     -41.9907      1.00000
      3     -41.9648      1.00000
      4       5.5915      1.00000
      5       6.9075      1.00000
      6       7.6328      1.00000
      7       7.6724      1.00000
      8       7.9218      1.00000
      9       7.9774      1.00000
     10      10.3899     -0.00000
     11      10.6405     -0.00000
     12      10.6828     -0.00000
     13      11.0832     -0.00000
     14      11.9456      0.00000
     15      14.9448      0.00000
     16      17.4654      0.00000
     17      20.4224      0.00000

 k-point    96 :       0.4063    0.3438    0.2188
  band No.  band energies     occupation 
      1     -42.0000      1.00000
      2     -41.9902      1.00000
      3     -41.9641      1.00000
      4       5.9672      1.00000
      5       6.7099      1.00000
      6       7.5626      1.00000
      7       7.6401      1.00000
      8       7.9785      1.00000
      9       8.1547      1.00000
     10      10.3862     -0.00000
     11      10.6009     -0.00000
     12      10.7027     -0.00000
     13      11.1725     -0.00000
     14      12.3604      0.00000
     15      14.2787      0.00000
     16      17.7731      0.00000
     17      20.4271      0.00000

 k-point    97 :       0.4688    0.3438    0.2188
  band No.  band energies     occupation 
      1     -42.0048      1.00000
      2     -41.9897      1.00000
      3     -41.9636      1.00000
      4       6.2620      1.00000
      5       6.5042      1.00000
      6       7.5209      1.00000
      7       7.6225      1.00000
      8       8.0581      1.00000
      9       8.2559      1.00000
     10      10.3878     -0.00000
     11      10.5614     -0.00000
     12      10.6980     -0.00000
     13      11.2358     -0.00000
     14      12.8701      0.00000
     15      13.5195      0.00000
     16      18.4636      0.00000
     17      19.3784      0.00000

 k-point    98 :       0.4063    0.4063    0.2188
  band No.  band energies     occupation 
      1     -41.9992      1.00000
      2     -41.9988      1.00000
      3     -41.9633      1.00000
      4       6.1845      1.00000
      5       6.5872      1.00000
      6       7.5244      1.00000
      7       7.5606      1.00000
      8       8.1648      1.00000
      9       8.3069      1.00000
     10      10.4132     -0.00000
     11      10.5640     -0.00000
     12      10.7861     -0.00000
     13      11.2347     -0.00000
     14      12.7552      0.00000
     15      14.1577      0.00000
     16      17.4239      0.00000
     17      19.2994      0.00000

 k-point    99 :       0.4688    0.4063    0.2188
  band No.  band energies     occupation 
      1     -42.0038      1.00000
      2     -41.9985      1.00000
      3     -41.9629      1.00000
      4       6.3251      1.00000
      5       6.4741      1.00000
      6       7.4897      1.00000
      7       7.5228      1.00000
      8       8.3202      1.00000
      9       8.4184      1.00000
     10      10.4276     -0.00000
     11      10.5232     -0.00000
     12      10.8167     -0.00000
     13      11.2874     -0.00000
     14      13.2091      0.00000
     15      13.7197      0.00000
     16      17.6869      0.00000
     17      18.3669      0.00000

 k-point   100 :       0.4688    0.4688    0.2188
  band No.  band energies     occupation 
      1     -42.0033      1.00000
      2     -42.0032      1.00000
      3     -41.9625      1.00000
      4       6.3425      1.00000
      5       6.4461      1.00000
      6       7.4636      1.00000
      7       7.4694      1.00000
      8       8.5184      1.00000
      9       8.5435      1.00000
     10      10.4462     -0.00000
     11      10.4821     -0.00000
     12      10.8688     -0.00000
     13      11.3325     -0.00000
     14      13.5143      0.00000
     15      13.7181      0.00000
     16      17.4028      0.00000
     17      17.6692      0.00000

 k-point   101 :       0.2813    0.2813    0.2813
  band No.  band energies     occupation 
      1     -41.9801      1.00000
      2     -41.9792      1.00000
      3     -41.9792      1.00000
      4       5.1060      1.00000
      5       7.4899      1.00000
      6       7.5394      1.00000
      7       7.5394      1.00000
      8       7.8051      1.00000
      9       7.8051      1.00000
     10      10.5638     -0.00000
     11      10.5639     -0.00000
     12      10.8124     -0.00000
     13      10.8124     -0.00000
     14      11.5886     -0.00000
     15      16.7699      0.00000
     16      16.7699      0.00000
     17      18.9449      0.00000

 k-point   102 :       0.3438    0.2813    0.2813
  band No.  band energies     occupation 
      1     -41.9911      1.00000
      2     -41.9785      1.00000
      3     -41.9783      1.00000
      4       5.5833      1.00000
      5       7.2161      1.00000
      6       7.4983      1.00000
      7       7.6361      1.00000
      8       7.7497      1.00000
      9       7.8765      1.00000
     10      10.4721     -0.00000
     11      10.5904     -0.00000
     12      10.7549     -0.00000
     13      10.9878     -0.00000
     14      11.9823      0.00000
     15      15.6684      0.00000
     16      17.6440      0.00000
     17      19.1626      0.00000

 k-point   103 :       0.4063    0.2813    0.2813
  band No.  band energies     occupation 
      1     -42.0000      1.00000
      2     -41.9776      1.00000
      3     -41.9775      1.00000
      4       6.0295      1.00000
      5       6.9529      1.00000
      6       7.4604      1.00000
      7       7.6731      1.00000
      8       7.7109      1.00000
      9       8.0218      1.00000
     10      10.4145     -0.00000
     11      10.5745     -0.00000
     12      10.7169     -0.00000
     13      11.1284     -0.00000
     14      12.4322      0.00000
     15      14.6053      0.00000
     16      18.5889      0.00000
     17      19.6698      0.00000

 k-point   104 :       0.4688    0.2813    0.2813
  band No.  band energies     occupation 
      1     -42.0048      1.00000
      2     -41.9773      1.00000
      3     -41.9770      1.00000
      4       6.3948      1.00000
      5       6.6956      1.00000
      6       7.4379      1.00000
      7       7.6909      1.00000
      8       7.7281      1.00000
      9       8.0900      1.00000
     10      10.3895     -0.00000
     11      10.5485     -0.00000
     12      10.6960     -0.00000
     13      11.2078     -0.00000
     14      12.9885      0.00000
     15      13.7061      0.00000
     16      19.5998      0.00000
     17      20.3548      0.00000

 k-point   105 :       0.3438    0.3438    0.2813
  band No.  band energies     occupation 
      1     -41.9902      1.00000
      2     -41.9898      1.00000
      3     -41.9774      1.00000
      4       6.0030      1.00000
      5       7.1064      1.00000
      6       7.5134      1.00000
      7       7.5349      1.00000
      8       7.7694      1.00000
      9       7.8716      1.00000
     10      10.4714     -0.00000
     11      10.5651     -0.00000
     12      10.8486     -0.00000
     13      11.0404     -0.00000
     14      12.4097      0.00000
     15      15.7734      0.00000
     16      17.3188      0.00000
     17      19.2973      0.00000

 k-point   106 :       0.4063    0.3438    0.2813
  band No.  band energies     occupation 
      1     -41.9989      1.00000
      2     -41.9891      1.00000
      3     -41.9766      1.00000
      4       6.3509      1.00000
      5       6.9446      1.00000
      6       7.4484      1.00000
      7       7.5443      1.00000
      8       7.7741      1.00000
      9       7.9983      1.00000
     10      10.4486     -0.00000
     11      10.5484     -0.00000
     12      10.8595     -0.00000
     13      11.1578     -0.00000
     14      12.8873      0.00000
     15      15.0269      0.00000
     16      17.8448      0.00000
     17      19.8167      0.00000

 k-point   107 :       0.4688    0.3438    0.2813
  band No.  band energies     occupation 
      1     -42.0036      1.00000
      2     -41.9887      1.00000
      3     -41.9762      1.00000
      4       6.5814      1.00000
      5       6.7975      1.00000
      6       7.4097      1.00000
      7       7.5615      1.00000
      8       7.8132      1.00000
      9       8.0727      1.00000
     10      10.4368     -0.00000
     11      10.5276     -0.00000
     12      10.8559     -0.00000
     13      11.2368     -0.00000
     14      13.4631      0.00000
     15      14.1801      0.00000
     16      18.6774      0.00000
     17      19.6492      0.00000

 k-point   108 :       0.4063    0.4063    0.2813
  band No.  band energies     occupation 
      1     -41.9981      1.00000
      2     -41.9979      1.00000
      3     -41.9758      1.00000
      4       6.5531      1.00000
      5       6.8698      1.00000
      6       7.4448      1.00000
      7       7.4610      1.00000
      8       7.9026      1.00000
      9       8.0752      1.00000
     10      10.4600     -0.00000
     11      10.5253     -0.00000
     12      10.9373     -0.00000
     13      11.2278     -0.00000
     14      13.3769      0.00000
     15      15.0336      0.00000
     16      17.4769      0.00000
     17      19.5803      0.00000

 k-point   109 :       0.4688    0.4063    0.2813
  band No.  band energies     occupation 
      1     -42.0028      1.00000
      2     -41.9975      1.00000
      3     -41.9754      1.00000
      4       6.6377      1.00000
      5       6.8126      1.00000
      6       7.4043      1.00000
      7       7.4533      1.00000
      8       8.0233      1.00000
      9       8.1442      1.00000
     10      10.4632     -0.00000
     11      10.5040     -0.00000
     12      10.9622     -0.00000
     13      11.2901     -0.00000
     14      13.9315      0.00000
     15      14.5431      0.00000
     16      17.8318      0.00000
     17      18.6017      0.00000

 k-point   110 :       0.4688    0.4688    0.2813
  band No.  band energies     occupation 
      1     -42.0023      1.00000
      2     -42.0023      1.00000
      3     -41.9751      1.00000
      4       6.6382      1.00000
      5       6.8055      1.00000
      6       7.3940      1.00000
      7       7.3987      1.00000
      8       8.1878      1.00000
      9       8.2182      1.00000
     10      10.4744     -0.00000
     11      10.4824     -0.00000
     12      11.0062     -0.00000
     13      11.3398     -0.00000
     14      14.3654      0.00000
     15      14.6306      0.00000
     16      17.4997      0.00000
     17      17.8205      0.00000

 k-point   111 :       0.3438    0.3438    0.3438
  band No.  band energies     occupation 
      1     -41.9891      1.00000
      2     -41.9889      1.00000
      3     -41.9889      1.00000
      4       6.4097      1.00000
      5       7.1415      1.00000
      6       7.4460      1.00000
      7       7.4460      1.00000
      8       7.7741      1.00000
      9       7.7741      1.00000
     10      10.5122     -0.00000
     11      10.5123     -0.00000
     12      11.0214     -0.00000
     13      11.0214     -0.00000
     14      12.8979      0.00000
     15      16.6825      0.00000
     16      16.6825      0.00000
     17      18.9120      0.00000

 k-point   112 :       0.4063    0.3438    0.3438
  band No.  band energies     occupation 
      1     -41.9978      1.00000
      2     -41.9882      1.00000
      3     -41.9881      1.00000
      4       6.7051      1.00000
      5       7.0772      1.00000
      6       7.3788      1.00000
      7       7.4633      1.00000
      8       7.7001      1.00000
      9       7.8863      1.00000
     10      10.4825     -0.00000
     11      10.5186     -0.00000
     12      11.0125     -0.00000
     13      11.1684     -0.00000
     14      13.4340      0.00000
     15      15.7370      0.00000
     16      17.6636      0.00000
     17      19.1415      0.00000

 k-point   113 :       0.4688    0.3438    0.3438
  band No.  band energies     occupation 
      1     -42.0026      1.00000
      2     -41.9879      1.00000
      3     -41.9877      1.00000
      4       6.8216      1.00000
      5       7.0319      1.00000
      6       7.3427      1.00000
      7       7.5443      1.00000
      8       7.6604      1.00000
      9       7.9582      1.00000
     10      10.4700     -0.00000
     11      10.5101     -0.00000
     12      11.0087     -0.00000
     13      11.2547     -0.00000
     14      14.0640      0.00000
     15      14.8310      0.00000
     16      18.7111      0.00000
     17      19.6454      0.00000

 k-point   114 :       0.4063    0.4063    0.3438
  band No.  band energies     occupation 
      1     -41.9971      1.00000
      2     -41.9970      1.00000
      3     -41.9875      1.00000
      4       6.8871      1.00000
      5       7.1256      1.00000
      6       7.3735      1.00000
      7       7.3909      1.00000
      8       7.7402      1.00000
      9       7.8801      1.00000
     10      10.4885     -0.00000
     11      10.5054     -0.00000
     12      11.0959     -0.00000
     13      11.2296     -0.00000
     14      14.0172      0.00000
     15      15.9859      0.00000
     16      17.4438      0.00000
     17      19.3033      0.00000

 k-point   115 :       0.4688    0.4063    0.3438
  band No.  band energies     occupation 
      1     -42.0018      1.00000
      2     -41.9966      1.00000
      3     -41.9871      1.00000
      4       6.9090      1.00000
      5       7.1357      1.00000
      6       7.3328      1.00000
      7       7.4272      1.00000
      8       7.7884      1.00000
      9       7.9342      1.00000
     10      10.4857     -0.00000
     11      10.4969     -0.00000
     12      11.1134     -0.00000
     13      11.2983     -0.00000
     14      14.6695      0.00000
     15      15.3956      0.00000
     16      18.0384      0.00000
     17      18.9373      0.00000

 k-point   116 :       0.4688    0.4688    0.3438
  band No.  band energies     occupation 
      1     -42.0014      1.00000
      2     -42.0014      1.00000
      3     -41.9867      1.00000
      4       6.9157      1.00000
      5       7.1616      1.00000
      6       7.3341      1.00000
      7       7.3481      1.00000
      8       7.9288      1.00000
      9       7.9592      1.00000
     10      10.4857     -0.00000
     11      10.4912     -0.00000
     12      11.1523     -0.00000
     13      11.3476     -0.00000
     14      15.2536      0.00000
     15      15.6147      0.00000
     16      17.6618      0.00000
     17      18.0792      0.00000

 k-point   117 :       0.4063    0.4063    0.4063
  band No.  band energies     occupation 
      1     -41.9963      1.00000
      2     -41.9963      1.00000
      3     -41.9963      1.00000
      4       7.0462      1.00000
      5       7.3207      1.00000
      6       7.3207      1.00000
      7       7.3686      1.00000
      8       7.7404      1.00000
      9       7.7405      1.00000
     10      10.4964     -0.00000
     11      10.4964     -0.00000
     12      11.2334     -0.00000
     13      11.2334     -0.00000
     14      14.6866      0.00000
     15      17.0059      0.00000
     16      17.0060      0.00000
     17      18.9354      0.00000

 k-point   118 :       0.4688    0.4063    0.4063
  band No.  band energies     occupation 
      1     -42.0011      1.00000
      2     -41.9960      1.00000
      3     -41.9959      1.00000
      4       7.0749      1.00000
      5       7.2762      1.00000
      6       7.2930      1.00000
      7       7.5164      1.00000
      8       7.6677      1.00000
      9       7.8111      1.00000
     10      10.4932     -0.00000
     11      10.4935     -0.00000
     12      11.2360     -0.00000
     13      11.3152     -0.00000
     14      15.4142      0.00000
     15      16.2161      0.00000
     16      18.0822      0.00000
     17      19.1770      0.00000

 k-point   119 :       0.4688    0.4688    0.4063
  band No.  band energies     occupation 
      1     -42.0007      1.00000
      2     -42.0007      1.00000
      3     -41.9956      1.00000
      4       7.1257      1.00000
      5       7.2826      1.00000
      6       7.2930      1.00000
      7       7.4941      1.00000
      8       7.7534      1.00000
      9       7.7775      1.00000
     10      10.4892     -0.00000
     11      10.4946     -0.00000
     12      11.2805     -0.00000
     13      11.3538     -0.00000
     14      16.1534      0.00000
     15      16.6612      0.00000
     16      17.8568      0.00000
     17      18.4751      0.00000

 k-point   120 :       0.4688    0.4688    0.4688
  band No.  band energies     occupation 
      1     -42.0004      1.00000
      2     -42.0004      1.00000
      3     -42.0003      1.00000
      4       7.2302      1.00000
      5       7.2735      1.00000
      6       7.2735      1.00000
      7       7.6530      1.00000
      8       7.6825      1.00000
      9       7.6825      1.00000
     10      10.4913     -0.00000
     11      10.4914     -0.00000
     12      11.3572     -0.00000
     13      11.3572     -0.00000
     14      17.0340      0.00000
     15      17.7530      0.00000
     16      17.7531      0.00000
     17      18.9455      0.00000


--------------------------------------------------------------------------------------------------------


 soft charge-density along one line, spin component            1
         0         1         2         3         4         5         6         7         8         9
 total charge-density along one line
 
 soft charge-density along one line, spin component            2
         0         1         2         3         4         5         6         7         8         9
 total charge-density along one line
 
 pseudopotential strength for first ion, spin component:            1
-45.412   0.000   0.000   7.805  -0.000  -0.000  -0.000   0.000
  0.000 -45.412   0.000  -0.000   7.805  -0.000  -0.000   0.000
  0.000   0.000 -45.412  -0.000  -0.000   7.805   0.000  -0.000
  7.805  -0.000  -0.000   5.583  -0.000  -0.000   0.000  -0.000
 -0.000   7.805  -0.000  -0.000   5.583  -0.000   0.000  -0.000
 -0.000  -0.000   7.805  -0.000  -0.000   5.583  -0.000   0.000
 -0.000  -0.000   0.000   0.000   0.000  -0.000  -2.461   0.000
  0.000   0.000  -0.000  -0.000  -0.000   0.000   0.000  -2.461
 -0.000   0.000   0.000   0.000  -0.000  -0.000  -0.000  -0.000
 -0.000  -0.000   0.000   0.000  -0.000  -0.000   0.000   0.000
 -0.000   0.000   0.000   0.000  -0.000  -0.000  -0.000  -0.000
 -0.000  -0.000   0.000   0.000   0.000  -0.000  -2.968   0.000
  0.000   0.000  -0.000  -0.000  -0.000   0.000   0.000  -2.968
 -0.000   0.000   0.000   0.000  -0.000  -0.000  -0.000  -0.000
 -0.000  -0.000   0.000   0.000  -0.000  -0.000   0.000   0.000
 -0.000   0.000   0.000   0.000  -0.000  -0.000  -0.000  -0.000
 -0.000  -0.000  -0.000  -0.000  -0.000   0.000  -0.000  -0.000
 -0.000  -0.000  -0.000  -0.000  -0.000   0.000  -0.000  -0.000
 pseudopotential strength for first ion, spin component:            2
-42.972   0.000   0.000   6.776  -0.000  -0.000  -0.000   0.000
  0.000 -42.972   0.000  -0.000   6.776  -0.000  -0.000   0.000
  0.000   0.000 -42.972  -0.000  -0.000   6.776   0.000  -0.000
  6.776  -0.000  -0.000   5.869  -0.000  -0.000   0.000  -0.000
 -0.000   6.776  -0.000  -0.000   5.869  -0.000   0.000  -0.000
 -0.000  -0.000   6.776  -0.000  -0.000   5.869  -0.000   0.000
 -0.000  -0.000   0.000   0.000   0.000  -0.000  -0.505   0.000
  0.000   0.000  -0.000  -0.000  -0.000   0.000   0.000  -0.505
 -0.000   0.000   0.000   0.000  -0.000  -0.000  -0.000  -0.000
 -0.000   0.000   0.000   0.000  -0.000  -0.000   0.000   0.000
 -0.000   0.000   0.000   0.000  -0.000  -0.000  -0.000  -0.000
 -0.000  -0.000   0.000   0.000   0.000  -0.000  -1.044   0.000
  0.000   0.000  -0.000  -0.000  -0.000   0.000   0.000  -1.044
 -0.000   0.000   0.000   0.000  -0.000  -0.000  -0.000  -0.000
 -0.000   0.000   0.000   0.000  -0.000  -0.000   0.000   0.000
 -0.000   0.000   0.000   0.000  -0.000  -0.000  -0.000  -0.000
 -0.000  -0.000  -0.000  -0.000  -0.000   0.000  -0.000  -0.000
 -0.000  -0.000  -0.000  -0.000  -0.000   0.000  -0.000  -0.000
 total augmentation occupancy for first ion, spin component:            1
  1.991  -0.000  -0.000  -0.028   0.000   0.000   0.000   0.000   0.000   0.000   0.000   0.000   0.000   0.000   0.000   0.000
 -0.000   1.991   0.000   0.000  -0.028   0.000   0.000   0.000   0.000   0.000   0.000   0.000   0.000   0.000   0.000   0.000
 -0.000   0.000   1.991   0.000  -0.000  -0.028   0.000   0.000   0.000   0.000   0.000   0.000   0.000   0.000   0.000   0.000
 -0.028   0.000   0.000   0.194  -0.000   0.000   0.000   0.000   0.000   0.000   0.000   0.000   0.000   0.000   0.000   0.000
  0.000  -0.028   0.000   0.000   0.194   0.000   0.000   0.000   0.000   0.000   0.000   0.000   0.000   0.000   0.000   0.000
  0.000  -0.000  -0.028   0.000   0.000   0.194   0.000   0.000   0.000   0.000   0.000   0.000   0.000   0.000   0.000   0.000
  0.000   0.000   0.000   0.000   0.000   0.000   2.889  -0.000   0.000   0.000   0.000  -1.690  -0.000   0.000  -0.000  -0.000
  0.000   0.000   0.000   0.000   0.000   0.000   0.000   2.889   0.000   0.000   0.000   0.000  -1.690   0.000   0.000   0.000
  0.000   0.000   0.000   0.000   0.000   0.000   0.000  -0.000   3.598   0.000   0.000  -0.000   0.000  -2.225  -0.000  -0.000
  0.000   0.000   0.000   0.000   0.000   0.000   0.000   0.000   0.000   2.889  -0.000  -0.000   0.000  -0.000  -1.690   0.000
  0.000   0.000   0.000   0.000   0.000   0.000  -0.000   0.000  -0.000  -0.000   3.598  -0.000  -0.000   0.000   0.000  -2.225
  0.000   0.000   0.000   0.000   0.000   0.000  -1.690  -0.000  -0.000   0.000  -0.000   1.855   0.000   0.000   0.000   0.000
  0.000   0.000   0.000   0.000   0.000   0.000  -0.000  -1.690   0.000  -0.000  -0.000  -0.000   1.855   0.000   0.000   0.000
  0.000   0.000   0.000   0.000   0.000   0.000   0.000   0.000  -2.225  -0.000   0.000   0.000   0.000   2.116   0.000   0.000
  0.000   0.000   0.000   0.000   0.000   0.000  -0.000   0.000  -0.000  -1.690  -0.000  -0.000   0.000   0.000   1.855   0.000
  0.000   0.000   0.000   0.000   0.000   0.000   0.000   0.000   0.000   0.000  -2.225   0.000   0.000  -0.000   0.000   2.116
  0.000   0.000   0.000   0.000   0.000   0.000   0.000   0.000   0.000   0.000   0.000  -0.000  -0.000  -0.000   0.000   0.000
  0.000   0.000   0.000   0.000   0.000   0.000   0.000  -0.000  -0.000   0.000  -0.000   0.000   0.000   0.000  -0.000   0.000
 total augmentation occupancy for first ion, spin component:            2
 -0.002  -0.000   0.000  -0.010   0.000  -0.000   0.000   0.000   0.000   0.000   0.000   0.000   0.000   0.000   0.000   0.000
 -0.000  -0.002   0.000  -0.000  -0.010  -0.000   0.000   0.000   0.000   0.000   0.000   0.000   0.000   0.000   0.000   0.000
  0.000   0.000  -0.002   0.000   0.000  -0.010   0.000   0.000   0.000   0.000   0.000   0.000   0.000   0.000   0.000   0.000
 -0.010  -0.000  -0.000  -0.012  -0.000   0.000   0.000   0.000   0.000   0.000   0.000   0.000   0.000   0.000   0.000   0.000
 -0.000  -0.010   0.000  -0.000  -0.012   0.000   0.000   0.000   0.000   0.000   0.000   0.000   0.000   0.000   0.000   0.000
 -0.000   0.000  -0.010   0.000   0.000  -0.012   0.000   0.000   0.000   0.000   0.000   0.000   0.000   0.000   0.000   0.000
  0.000   0.000   0.000   0.000   0.000   0.000   2.451   0.000   0.000  -0.000  -0.000  -0.981  -0.000   0.000   0.000  -0.000
  0.000   0.000   0.000   0.000   0.000   0.000   0.000   2.451   0.000  -0.000  -0.000   0.000  -0.981  -0.000  -0.000  -0.000
  0.000   0.000   0.000   0.000   0.000   0.000   0.000   0.000   2.978  -0.000   0.000   0.000  -0.000  -1.254   0.000  -0.000
  0.000   0.000   0.000   0.000   0.000   0.000  -0.000  -0.000   0.000   2.451  -0.000   0.000  -0.000   0.000  -0.981  -0.000
  0.000   0.000   0.000   0.000   0.000   0.000  -0.000  -0.000   0.000  -0.000   2.978   0.000   0.000   0.000   0.000  -1.254
  0.000   0.000   0.000   0.000   0.000   0.000  -0.981  -0.000   0.000  -0.000  -0.000   0.131   0.000  -0.000   0.000  -0.000
  0.000   0.000   0.000   0.000   0.000   0.000  -0.000  -0.981   0.000  -0.000  -0.000  -0.000   0.131  -0.000   0.000   0.000
  0.000   0.000   0.000   0.000   0.000   0.000  -0.000  -0.000  -1.254   0.000  -0.000   0.000  -0.000   0.310  -0.000   0.000
  0.000   0.000   0.000   0.000   0.000   0.000   0.000  -0.000  -0.000  -0.981  -0.000   0.000  -0.000  -0.000   0.131  -0.000
  0.000   0.000   0.000   0.000   0.000   0.000  -0.000  -0.000  -0.000  -0.000  -1.254   0.000  -0.000   0.000   0.000   0.310
  0.000   0.000   0.000   0.000   0.000   0.000  -0.000  -0.000   0.000   0.000  -0.000   0.000  -0.000   0.000   0.000   0.000
  0.000   0.000   0.000   0.000   0.000   0.000  -0.000   0.000   0.000  -0.000   0.000  -0.000  -0.000  -0.000   0.000  -0.000


------------------------ aborting loop because EDIFF is reached ----------------------------------------


    CHARGE:  cpu time      0.3374: real time      0.3373
    FORLOC:  cpu time      0.0013: real time      0.0013
    FORNL :  cpu time      1.6147: real time      1.6146
    STRESS:  cpu time      4.8617: real time      4.8604
    FORCOR:  cpu time      0.0059: real time      0.0059
    FORHAR:  cpu time      0.0011: real time      0.0011
    MIXING:  cpu time      0.0028: real time      0.0028
    OFIELD:  cpu time      0.0000: real time      0.0000

  FORCE on cell =-STRESS in cart. coord.  units (eV):
  Direction    XX          YY          ZZ          XY          YZ          ZX
  --------------------------------------------------------------------------------------
  Alpha Z   134.72099   134.72099   134.72099
  Ewald    -829.96536  -829.96536  -829.96536    -0.00000    -0.00000    -0.00000
  Hartree   243.28754   243.28754   243.28754    -0.00000    -0.00000    -0.00000
  E(xc)    -136.21661  -136.21661  -136.21661    -0.00000    -0.00000     0.00000
  Local     105.19442   105.19442   105.19442     0.00000     0.00000     0.00000
  n-local   -36.04151   -31.45496   -28.28365     3.35642    -0.77208     1.04373
  augment   298.81817   298.81817   298.81818    -0.00000     0.00000     0.00000
  Kinetic   217.75610   215.68978   213.55253     2.81219    -0.31718     0.82411
  Fock        0.00000     0.00000     0.00000     0.00000     0.00000     0.00000
  -------------------------------------------------------------------------------------
  Total      -0.42143    -0.42143    -0.42143    -0.00000     0.00000    -0.00000
  in kB     -28.95370   -28.95370   -28.95370    -0.00000     0.00000    -0.00000
  external pressure =      -28.95 kB  Pullay stress =        0.00 kB


 VOLUME and BASIS-vectors are now :
 -----------------------------------------------------------------------------
  energy-cutoff  :      520.00
  volume of cell :       23.32
      direct lattice vectors                 reciprocal lattice vectors
     2.857000000  0.000000000  0.000000000     0.350017501  0.000000000  0.000000000
     0.000000000  2.857000000  0.000000000     0.000000000  0.350017501  0.000000000
     0.000000000  0.000000000  2.857000000     0.000000000  0.000000000  0.350017501

  length of vectors
     2.857000000  2.857000000  2.857000000     0.350017501  0.350017501  0.350017501


 FORCES acting on ions
    electron-ion (+dipol)            ewald-force                    non-local-force                 convergence-correction
 -----------------------------------------------------------------------------------------------
   -.255E-13 -.196E-13 -.446E-13   -.150E-13 -.674E-14 -.494E-14   0.974E-25 0.000E+00 0.000E+00   0.114E-13 -.243E-13 -.576E-13
   0.318E-12 0.957E-12 -.153E-11   0.174E-13 0.610E-14 0.577E-14   -.399E-23 0.000E+00 0.000E+00   0.432E-15 -.225E-14 -.555E-14
 -----------------------------------------------------------------------------------------------
   0.292E-12 0.937E-12 -.158E-11   0.239E-14 -.646E-15 0.836E-15   -.390E-23 0.000E+00 0.000E+00   0.119E-13 -.265E-13 -.632E-13
 
 
 POSITION                                       TOTAL-FORCE (eV/Angst)
 -----------------------------------------------------------------------------------
      0.00000      0.00000      0.00000         0.000000      0.000000      0.000000
      1.42850      1.42850      1.42850        -0.000000      0.000000      0.000000
 -----------------------------------------------------------------------------------
    total drift:                                0.000000      0.000000     -0.000000


--------------------------------------------------------------------------------------------------------



  FREE ENERGIE OF THE ION-ELECTRON SYSTEM (eV)
  ---------------------------------------------------
  free  energy   TOTEN  =       -15.43102200 eV

  energy  without entropy=      -15.43085112  energy(sigma->0) =      -15.43096504
 


--------------------------------------------------------------------------------------------------------


    POTLOK:  cpu time      0.2724: real time      0.2724


--------------------------------------------------------------------------------------------------------


     LOOP+:  cpu time     91.3681: real time     91.3495
    4ORBIT:  cpu time      0.0000: real time      0.0000

 total amount of memory used by VASP MPI-rank0   103824. kBytes
=======================================================================

   base                                    :      30000. kBytes
   nonlr-proj                              :       2517. kBytes
   fftplans                                :      16524. kBytes
   grid                                    :      10266. kBytes
   one-center                              :         62. kBytes
   wavefun                                 :      44455. kBytes
 
  
  
 General timing and accounting informations for this job:
 ========================================================
  
                  Total CPU time used (sec):       93.694
                            User time (sec):       92.366
                          System time (sec):        1.328
                         Elapsed time (sec):       93.661
  
                   Maximum memory used (kb):     1626496.
                   Average memory used (kb):          N/A
  
                          Minor page faults:      1011230
                          Major page faults:            0
                 Voluntary context switches:         1986
