 running    1 mpi-ranks, on    1 nodes
 distrk:  each k-point on    1 cores,    1 groups
 distr:  one band on    1 cores,    1 groups
 Offloading initialized ...    1 GPUs detected
 vasp.6.5.1 10Mar25 (build May 15 2026 23:14:27) complex                         
 POSCAR found type information on POSCAR FeCo
 POSCAR found :  2 types and       2 ions
 scaLAPACK will be used selectively (only on CPU)
 -----------------------------------------------------------------------------
|                                                                             |
|               ----> ADVICE to this user running VASP <----                  |
|                                                                             |
|     You have a (more or less) 'small supercell' and for smaller cells       |
|     it is recommended to use the reciprocal-space projection scheme!        |
|     The real-space optimization is not efficient for small cells and it     |
|     is also less accurate ...                                               |
|     Therefore, set LREAL=.FALSE. in the INCAR file.                         |
|                                                                             |
 -----------------------------------------------------------------------------

 LDA part: xc-table for (Slater+PW92), standard interpolation
 POSCAR, INCAR and KPOINTS ok, starting setup
 FFT: planning ... GRIDC
 FFT: planning ... GRID_SOFT
 FFT: planning ... GRID
 WAVECAR not read
 WARNING: random wavefunctions but no delay for mixing, default for NELMDL
 entering main loop
       N       E                     dE             d eps       ncg     rms          rms(c)
DAV:   1     0.161024659403E+03    0.16102E+03   -0.12941E+04  8616   0.191E+03
DAV:   2    -0.112841755687E+02   -0.17231E+03   -0.16743E+03  8181   0.398E+02
DAV:   3    -0.172799009647E+02   -0.59957E+01   -0.59148E+01  8523   0.899E+01
DAV:   4    -0.173807533641E+02   -0.10085E+00   -0.10083E+00  9122   0.109E+01
DAV:   5    -0.173848676640E+02   -0.41143E-02   -0.41142E-02  9862   0.216E+00    0.154E+01
DAV:   6    -0.156961026079E+02    0.16888E+01   -0.18002E+01  8353   0.632E+01    0.866E+00
DAV:   7    -0.156093946542E+02    0.86708E-01   -0.25458E+00  8691   0.267E+01    0.777E+00
DAV:   8    -0.154949844202E+02    0.11441E+00   -0.13810E+00  8952   0.245E+01    0.478E+00
DAV:   9    -0.154416766149E+02    0.53308E-01   -0.21481E-01 10170   0.867E+00    0.189E+00
DAV:  10    -0.154307477834E+02    0.10929E-01   -0.23473E-02  8933   0.224E+00    0.525E-01
DAV:  11    -0.154310509320E+02   -0.30315E-03   -0.28395E-03  9433   0.945E-01    0.204E-01
DAV:  12    -0.154310219271E+02    0.29005E-04   -0.29657E-04 10815   0.251E-01    0.592E-02
DAV:  13    -0.154310217002E+02    0.22691E-06   -0.30615E-05 10252   0.552E-02    0.233E-02
DAV:  14    -0.154310219999E+02   -0.29970E-06   -0.60473E-06  8535   0.456E-02
   1 F= -.15431022E+02 E0= -.15430965E+02  d E =-.170876E-03  mag=     4.5355
Warning: ieee_invalid is signaling
Warning: ieee_divide_by_zero is signaling
Warning: ieee_underflow is signaling
Warning: ieee_inexact is signaling
FORTRAN STOP
