       N       E                     dE             d eps       ncg     rms          rms(c)
DAV:   1     0.159068141878E+05    0.15907E+05   -0.51606E+05105232   0.212E+03
DAV:   2     0.170120068168E+04   -0.14206E+05   -0.13493E+05 99840   0.601E+02
DAV:   3    -0.676819040137E+03   -0.23780E+04   -0.19465E+04 99840   0.247E+02
DAV:   4    -0.892270815490E+03   -0.21545E+03   -0.20144E+03108608   0.807E+01
DAV:   5    -0.899482139245E+03   -0.72113E+01   -0.71401E+01116056   0.149E+01    0.114E+02
DAV:   6    -0.863398031614E+03    0.36084E+02   -0.11050E+03108080   0.950E+01    0.132E+02
DAV:   7    -0.103855999429E+04   -0.17516E+03   -0.38021E+02113240   0.127E+02    0.207E+02
DAV:   8    -0.883262421078E+03    0.15530E+03   -0.18578E+02128744   0.727E+01    0.124E+02
DAV:   9    -0.806306952611E+03    0.76955E+02   -0.85299E+01131888   0.601E+01    0.745E+01
DAV:  10    -0.839504148396E+03   -0.33197E+02   -0.86388E+01136824   0.624E+01    0.116E+02
DAV:  11    -0.802317645409E+03    0.37187E+02   -0.45954E+01114240   0.424E+01    0.656E+01
DAV:  12    -0.784715466982E+03    0.17602E+02   -0.21099E+01115768   0.305E+01    0.354E+01
DAV:  13    -0.785475246993E+03   -0.75978E+00   -0.12770E+01118136   0.210E+01    0.357E+01
DAV:  14    -0.783089479586E+03    0.23858E+01   -0.65100E+00108472   0.145E+01    0.212E+01
DAV:  15    -0.783152405390E+03   -0.62926E-01   -0.22428E+00115416   0.924E+00    0.198E+01
DAV:  16    -0.783804649372E+03   -0.65224E+00   -0.18364E+00111016   0.782E+00    0.191E+01
DAV:  17    -0.783782536508E+03    0.22113E-01   -0.86859E-01110712   0.561E+00    0.170E+01
DAV:  18    -0.784066855311E+03   -0.28432E+00   -0.62679E-01115000   0.425E+00    0.159E+01
DAV:  19    -0.784335597851E+03   -0.26874E+00   -0.64961E-01114928   0.493E+00    0.143E+01
DAV:  20    -0.785839739361E+03   -0.15041E+01   -0.16428E+00121664   0.867E+00    0.184E+01
DAV:  21    -0.785271122824E+03    0.56862E+00   -0.18025E+00112848   0.918E+00    0.119E+01
DAV:  22    -0.785170587296E+03    0.10054E+00   -0.87662E-01118712   0.618E+00    0.101E+01
DAV:  23    -0.785352803971E+03   -0.18222E+00   -0.76148E-01120056   0.528E+00    0.974E+00
DAV:  24    -0.785145084285E+03    0.20772E+00   -0.44310E-01113544   0.423E+00    0.557E+00
DAV:  25    -0.785284782041E+03   -0.13970E+00   -0.29555E-01124536   0.355E+00    0.725E+00
DAV:  26    -0.785167690947E+03    0.11709E+00   -0.19843E-01116416   0.301E+00    0.347E+00
DAV:  27    -0.785220030841E+03   -0.52340E-01   -0.12045E-01115872   0.252E+00    0.431E+00
DAV:  28    -0.785218665781E+03    0.13651E-02   -0.85299E-02124512   0.202E+00    0.324E+00
DAV:  29    -0.785212875038E+03    0.57907E-02   -0.58986E-02119744   0.187E+00    0.269E+00
DAV:  30    -0.785239611390E+03   -0.26736E-01   -0.46905E-02124584   0.154E+00    0.298E+00
DAV:  31    -0.785220656272E+03    0.18955E-01   -0.31966E-02116384   0.139E+00    0.175E+00
DAV:  32    -0.785239453188E+03   -0.18797E-01   -0.26638E-02122632   0.126E+00    0.239E+00
DAV:  33    -0.785227333752E+03    0.12119E-01   -0.23621E-02114608   0.116E+00    0.126E+00
DAV:  34    -0.785228773009E+03   -0.14393E-02   -0.14565E-02124416   0.951E-01    0.122E+00
DAV:  35    -0.785227039783E+03    0.17332E-02   -0.87173E-03115240   0.696E-01    0.872E-01
DAV:  36    -0.785225013521E+03    0.20263E-02   -0.44514E-03113272   0.547E-01    0.490E-01
DAV:  37    -0.785226174147E+03   -0.11606E-02   -0.27797E-03116328   0.401E-01    0.617E-01
DAV:  38    -0.785224865336E+03    0.13088E-02   -0.18989E-03112112   0.352E-01    0.272E-01
DAV:  39    -0.785225224830E+03   -0.35949E-03   -0.95564E-04116680   0.233E-01    0.367E-01
DAV:  40    -0.785224786850E+03    0.43798E-03   -0.66167E-04113040   0.200E-01    0.164E-01
DAV:  41    -0.785224768844E+03    0.18006E-04   -0.26063E-04117848   0.119E-01    0.139E-01
DAV:  42    -0.785224780193E+03   -0.11350E-04   -0.15972E-04121552   0.877E-02    0.124E-01
DAV:  43    -0.785224727894E+03    0.52300E-04   -0.84292E-05112304   0.728E-02    0.551E-02
DAV:  44    -0.785224748920E+03   -0.21027E-04   -0.41769E-05116168   0.481E-02    0.775E-02
DAV:  45    -0.785224729689E+03    0.19231E-04   -0.27426E-05113280   0.421E-02    0.302E-02
DAV:  46    -0.785224733746E+03   -0.40564E-05   -0.11033E-05112896   0.245E-02    0.361E-02
DAV:  47    -0.785224732658E+03    0.10878E-05   -0.90833E-06102616   0.212E-02    0.232E-02
DAV:  48    -0.785224731842E+03    0.81578E-06   -0.45163E-06 93680   0.164E-02
   1 F= -.78522473E+03 E0= -.78522619E+03  d E =0.438538E-02  mag=   155.7470
